%chk=ACEM.chk
%mem=8GB
%nprocshared=12
#p B3LYP/6-311G** Opt=cartesian

Geometry optimization of ACEM using B3LYP/6-311G**

0 1
C      4.150000    -2.595000    -1.578000
H      3.796000    -2.341000    -0.669000
H      4.745000    -1.850000    -1.905000
H      4.781000    -3.474000    -1.443000
C      3.003000    -2.765000    -2.527000
N      1.845000    -2.163000    -2.266000
H      1.793000    -1.602000    -1.425000
H      1.073000    -2.258000    -2.865000
O      3.168000    -3.474000    -3.588000

