%chk=ETAM.chk
%mem=8GB
%nprocshared=12
#p B3LYP/6-311G** Opt=cartesian

Geometry optimization of ETAM using B3LYP/6-311G**

1 1
C     -0.730000    -0.911000     3.052000
H     -0.982000     0.061000     3.013000
H      0.260000    -0.992000     2.893000
H     -1.213000    -1.398000     2.319000
C     -1.089000    -1.486000     4.381000
H     -0.341000    -2.025000     4.734000
H     -1.347000    -0.726000     5.118000
N     -2.271000    -2.338000     4.234000
H     -2.839000    -2.275000     5.056000
H     -2.807000    -2.042000     3.442000
H     -1.990000    -3.290000     4.102000

