%chk=ETOH.chk
%mem=8GB
%nprocshared=12
#p B3LYP/6-311G** Opt=cartesian

Geometry optimization of ETOH using B3LYP/6-311G**

0 1
C     -2.551000     3.704000     1.534000
H     -2.344000     3.052000     0.777000
H     -2.608000     4.714000     1.128000
H     -3.471000     3.366000     2.010000
C     -1.467000     3.853000     2.722000
H     -1.595000     4.734000     3.125000
H     -1.494000     3.184000     3.583000
O     -0.227000     3.856000     1.951000
H     -0.220000     3.078000     1.322000

