%chk=ETSH.chk
%mem=8GB
%nprocshared=12
#p B3LYP/6-311G** Opt=cartesian

Geometry optimization of ETSH using B3LYP/6-311G**

0 1
C     -4.022000    -0.914000    -3.782000
H     -4.854000    -1.343000    -3.511000
H     -3.301000    -1.678000    -4.073000
H     -4.209000    -0.390000    -4.720000
C     -3.426000     0.006000    -2.721000
H     -4.180000     0.514000    -2.295000
H     -2.991000    -0.571000    -2.023000
S     -2.213000     1.185000    -3.324000
H     -2.230000     2.010000    -2.756000

