%chk=MBZ.chk
%mem=8GB
%nprocshared=12
#p B3LYP/6-311G** Opt=cartesian

Geometry optimization of MBZ using B3LYP/6-311G**

0 1
C      1.357000    -1.612000     3.451000
H      1.338000    -0.876000     2.811000
H      1.748000    -2.431000     3.093000
H      1.956000    -1.299000     4.307000
C     -0.065000    -1.913000     3.865000
C     -0.363000    -3.088000     4.564000
H      0.379000    -3.744000     4.737000
C     -1.623000    -3.357000     5.011000
H     -1.805000    -4.219000     5.512000
C     -2.632000    -2.465000     4.780000
H     -3.559000    -2.650000     5.110000
C     -2.369000    -1.295000     4.083000
H     -3.114000    -0.632000     3.897000
C     -1.083000    -1.024000     3.632000
H     -0.907000    -0.173000     3.136000

