%chk=MGDM.chk
%mem=8GB
%nprocshared=12
#p B3LYP/6-311G** Opt=cartesian

Geometry optimization of MGDM using B3LYP/6-311G**

1 1
C      2.534000    -5.516000     2.750000
H      3.173000    -4.879000     3.159000
H      3.034000    -6.330000     2.491000
H      1.763000    -5.775000     3.477000
N      1.940000    -4.918000     1.574000
H      1.991000    -4.041000     1.508000
C      1.341000    -5.541000     0.607000
N      1.252000    -6.865000     0.641000
H      1.597000    -7.312000     1.314000
H      0.847000    -7.296000    -0.012000
N      0.808000    -4.964000    -0.425000
H      0.839000    -4.088000    -0.505000
H      0.416000    -5.449000    -1.047000

