%chk=MIMD.chk
%mem=8GB
%nprocshared=12
#p B3LYP/6-311G** Opt=cartesian

Geometry optimization of MIMD using B3LYP/6-311G**

0 1
C      3.125000    -2.014000    -5.438000
H      2.906000    -2.609000    -6.200000
H      4.104000    -1.963000    -5.299000
H      2.756000    -1.014000    -5.664000
C      2.482000    -2.552000    -4.197000
C      2.777000    -2.439000    -2.881000
H      3.567000    -1.957000    -2.491000
N      1.802000    -3.101000    -2.138000
C      0.949000    -3.616000    -2.990000
H      0.139000    -4.164000    -2.752000
N      1.305000    -3.310000    -4.250000
H      0.825000    -3.570000    -5.067000

