%chk=MIME.chk
%mem=8GB
%nprocshared=12
#p B3LYP/6-311G** Opt=cartesian

Geometry optimization of MIME using B3LYP/6-311G**

0 1
C     -4.188000    -0.864000    -1.509000
H     -4.878000    -1.494000    -1.833000
H     -3.375000    -1.344000    -1.213000
H     -3.925000    -0.177000    -2.313000
C     -4.754000    -0.107000    -0.322000
C     -6.035000     0.101000     0.049000
H     -6.848000    -0.262000    -0.393000
N     -5.990000     0.905000     1.147000
H     -6.782000     1.223000     1.679000
C     -4.721000     1.220000     1.423000
H     -4.415000     1.787000     2.172000
N     -3.950000     0.632000     0.514000

