%chk=MIMM.chk
%mem=8GB
%nprocshared=12
#p B3LYP/6-311G** Opt=cartesian

Geometry optimization of MIMM using B3LYP/6-311G**

1 1
C      5.552000    -1.079000    -4.575000
H      5.729000    -1.788000    -5.268000
H      6.395000    -0.946000    -4.039000
H      5.307000    -0.145000    -5.082000
C      4.484000    -1.573000    -3.654000
C      4.350000    -1.430000    -2.316000
H      4.988000    -0.964000    -1.704000
N      3.176000    -2.040000    -1.948000
H      2.815000    -2.098000    -1.018000
C      2.605000    -2.539000    -3.029000
H      1.737000    -3.029000    -3.056000
N      3.377000    -2.280000    -4.077000
H      3.189000    -2.553000    -5.016000

