%chk=MIND.chk
%mem=8GB
%nprocshared=12
#p B3LYP/6-311G** Opt=cartesian

Geometry optimization of MIND using B3LYP/6-311G**

0 1
C      2.074000     3.058000     3.539000
H      1.220000     3.486000     3.708000
H      2.012000     2.595000     2.689000
H      2.849000     3.822000     3.475000
C      2.348000     2.069000     4.617000
C      2.944000     2.240000     5.818000
H      3.273000     3.053000     6.125000
N      3.006000     1.068000     6.528000
H      3.351000     0.965000     7.309000
C      2.416000     0.086000     5.764000
C      2.231000    -1.276000     6.030000
H      2.514000    -1.653000     6.833000
C      1.615000    -2.035000     5.070000
H      1.481000    -2.943000     5.220000
C      1.187000    -1.470000     3.876000
H      0.773000    -2.011000     3.242000
C      1.358000    -0.127000     3.601000
H      1.066000     0.241000     2.799000
C      1.986000     0.661000     4.572000

