%chk=MPHE.chk
%mem=8GB
%nprocshared=12
#p B3LYP/6-311G** Opt=cartesian

Geometry optimization of MPHE using B3LYP/6-311G**

0 1
C     -0.475000     0.744000    -4.919000
H     -0.530000     0.345000    -4.037000
H      0.308000     0.385000    -5.365000
H     -1.367000     0.487000    -5.490000
C     -0.339000     2.232000    -4.789000
C      0.004000     3.067000    -5.801000
H      0.195000     2.722000    -6.644000
C      0.073000     4.457000    -5.578000
H      0.330000     5.027000    -6.267000
C     -0.244000     4.968000    -4.342000
O     -0.291000     6.337000    -4.143000
H     -0.696000     6.767000    -4.947000
C     -0.668000     4.158000    -3.324000
H     -0.927000     4.508000    -2.502000
C     -0.695000     2.812000    -3.567000
H     -0.967000     2.249000    -2.878000

