%chk=MSM.chk
%mem=8GB
%nprocshared=12
#p B3LYP/6-311G** Opt=cartesian

Geometry optimization of MSM using B3LYP/6-311G**

0 1
C      4.699000    -3.571000     1.979000
H      5.180000    -2.771000     1.473000
H      5.481000    -4.289000     1.990000
H      4.558000    -3.247000     3.010000
S      3.309000    -4.157000     1.073000
C      2.461000    -2.635000     0.778000
H      2.891000    -2.138000     0.017000
H      1.499000    -2.812000     0.545000
H      2.491000    -2.056000     1.599000

