%chk=N1PA.chk
%mem=8GB
%nprocshared=12
#p B3LYP/6-311G** Opt=cartesian

Geometry optimization of N1PA using B3LYP/6-311G**

0 1
C     -1.130000     6.564000    -0.607000
H     -1.290000     6.676000     0.377000
H     -0.065000     6.440000    -0.801000
H     -1.537000     7.401000    -1.174000
C     -1.861000     5.304000    -1.062000
O     -1.417000     4.577000    -1.955000
N     -3.003000     5.008000    -0.459000
C     -3.869000     3.913000    -0.980000
H     -3.389000     3.024000    -0.890000
H     -4.196000     4.080000    -2.006000
C     -5.024000     3.902000     0.018000
H     -5.826000     4.392000    -0.354000
H     -5.311000     2.956000     0.228000
C     -4.528000     4.589000     1.270000
H     -5.285000     5.015000     1.757000
H     -4.061000     3.938000     1.861000
C     -3.558000     5.640000     0.752000
H     -4.033000     6.485000     0.525000
H     -2.838000     5.823000     1.418000

