%chk=NMA.chk
%mem=8GB
%nprocshared=12
#p B3LYP/6-311G** Opt=cartesian

Geometry optimization of NMA using B3LYP/6-311G**

0 1
C     -4.047000     3.508000     1.006000
H     -3.145000     3.084000     0.957000
H     -4.210000     3.849000     2.028000
H     -4.088000     4.343000     0.307000
N     -5.063000     2.492000     0.649000
H     -6.067000     2.688000     0.591000
C     -4.698000     1.238000     0.382000
O     -3.510000     0.838000     0.371000
C     -5.793000     0.275000     0.132000
H     -6.644000     0.759000    -0.086000
H     -5.511000    -0.363000    -0.706000
H     -5.931000    -0.359000     1.009000

