%chk=PRPA.chk
%mem=8GB
%nprocshared=12
#p B3LYP/6-311G** Opt=cartesian

Geometry optimization of PRPA using B3LYP/6-311G**

0 1
C     -5.212000     1.419000     2.435000
H     -5.708000     2.174000     2.847000
H     -5.626000     0.552000     2.685000
H     -5.260000     1.525000     1.351000
C     -3.781000     1.438000     2.973000
H     -3.214000     0.823000     2.417000
H     -3.416000     2.369000     2.900000
C     -3.686000     0.991000     4.442000
H     -4.181000     1.647000     5.001000
H     -4.095000     0.089000     4.522000
H     -2.652000     0.944000     4.783000

