test                                                                    
SP        RB3LYP                                                      6-311G(d,p)         
Number of atoms                            I                7
Info1-9                                    I   N=           9
           5           4           0           0           0         111
           1          18        -502
Full Title                                 C   N=           1
test        
Route                                      C   N=           8
# B3LYP/6-311G** scrf(solvent=water) pop=MK IOp(6/33=2,6/42=
6) geom=allcheck guess=read         
Charge                                     I               -1
Multiplicity                               I                1
Number of electrons                        I               32
Number of alpha electrons                  I               16
Number of beta electrons                   I               16
Number of basis functions                  I               90
Number of independent functions            I               90
Number of point charges in /Mol/           I                0
Number of translation vectors              I                0
Atomic numbers                             I   N=           7
           6           1           1           1           6           8
           8
Nuclear charges                            R   N=           7
  6.00000000E+00  1.00000000E+00  1.00000000E+00  1.00000000E+00  6.00000000E+00
  8.00000000E+00  8.00000000E+00
Current cartesian coordinates              R   N=          21
  2.56023748E+00 -9.73441056E-02 -1.46301377E-03  3.29764790E+00  1.00597720E+00
 -1.59450214E+00  3.26815090E+00 -2.03836065E+00 -1.11067129E-01  3.27678232E+00
  7.98115205E-01  1.72763639E+00 -4.17932809E-01  3.93747953E-03 -3.35273990E-03
 -1.32039511E+00  2.19069200E+00  4.26712351E-04 -1.51665603E+00 -2.09135350E+00
  4.26712351E-04
Number of symbols in /Mol/                 I                0
Force Field                                I                0
Atom Types                                 C   N=           7
                                                            
                        
Int Atom Types                             I   N=           7
           0           0           0           0           0           0
           0
MM charges                                 R   N=           7
  0.00000000E+00  0.00000000E+00  0.00000000E+00  0.00000000E+00  0.00000000E+00
  0.00000000E+00  0.00000000E+00
Integer atomic weights                     I   N=           7
          12           1           1           1          12          16
          16
Real atomic weights                        R   N=           7
  1.20000000E+01  1.00782504E+00  1.00782504E+00  1.00782504E+00  1.20000000E+01
  1.59949146E+01  1.59949146E+01
Atom fragment info                         I   N=           7
           0           0           0           0           0           0
           0
Atom residue num                           I   N=           7
           0           0           0           0           0           0
           0
Nuclear spins                              I   N=           7
           0           1           1           1           0           0
           0
Nuclear ZEff                               R   N=           7
 -3.60000000E+00 -1.00000000E+00 -1.00000000E+00 -1.00000000E+00 -3.60000000E+00
 -5.60000000E+00 -5.60000000E+00
Nuclear ZNuc                               R   N=           7
  6.00000000E+00  1.00000000E+00  1.00000000E+00  1.00000000E+00  6.00000000E+00
  8.00000000E+00  8.00000000E+00
Nuclear QMom                               R   N=           7
  0.00000000E+00  0.00000000E+00  0.00000000E+00  0.00000000E+00  0.00000000E+00
  0.00000000E+00  0.00000000E+00
Nuclear GFac                               R   N=           7
  0.00000000E+00  2.79284600E+00  2.79284600E+00  2.79284600E+00  0.00000000E+00
  0.00000000E+00  0.00000000E+00
MicOpt                                     I   N=           7
          -1          -1          -1          -1          -1          -1
          -1
Number of residues                         I                0
Number of secondary structures             I                0
SymInf integers                            I   N=          26
           1           1           1           1           1           0
           0           0           0           0           0           0
           0           0           0           0           0           0
           0           0           0           0           0           0
           0           0
RotTr to input orientation                 R   N=          12
 -9.99999929E-01 -3.78115810E-04  0.00000000E+00  3.78115810E-04 -9.99999929E-01
  0.00000000E+00  0.00000000E+00  0.00000000E+00  1.00000000E+00 -3.04794536E-04
 -1.14603667E-16 -4.26712351E-04
Number of contracted shells                I               32
Number of primitive shells                 I               66
Pure/Cartesian d shells                    I                0
Pure/Cartesian f shells                    I                0
Highest angular momentum                   I                2
Largest degree of contraction              I                6
Shell types                                I   N=          32
           0          -1          -1          -1          -2           0
           0           0           1           0           0           0
           1           0           0           0           1           0
          -1          -1          -1          -2           0          -1
          -1          -1          -2           0          -1          -1
          -1          -2
Number of primitives per shell             I   N=          32
           6           3           1           1           1           3
           1           1           1           3           1           1
           1           3           1           1           1           6
           3           1           1           1           6           3
           1           1           1           6           3           1
           1           1
Shell to atom map                          I   N=          32
           1           1           1           1           1           2
           2           2           2           3           3           3
           3           4           4           4           4           5
           5           5           5           5           6           6
           6           6           6           7           7           7
           7           7
Primitive exponents                        R   N=          66
  4.56324000E+03  6.82024000E+02  1.54973000E+02  4.44553000E+01  1.30290000E+01
  1.82773000E+00  2.09642000E+01  4.80331000E+00  1.45933000E+00  4.83456000E-01
  1.45585000E-01  6.26000000E-01  3.38650000E+01  5.09479000E+00  1.15879000E+00
  3.25840000E-01  1.02741000E-01  7.50000000E-01  3.38650000E+01  5.09479000E+00
  1.15879000E+00  3.25840000E-01  1.02741000E-01  7.50000000E-01  3.38650000E+01
  5.09479000E+00  1.15879000E+00  3.25840000E-01  1.02741000E-01  7.50000000E-01
  4.56324000E+03  6.82024000E+02  1.54973000E+02  4.44553000E+01  1.30290000E+01
  1.82773000E+00  2.09642000E+01  4.80331000E+00  1.45933000E+00  4.83456000E-01
  1.45585000E-01  6.26000000E-01  8.58850000E+03  1.29723000E+03  2.99296000E+02
  8.73771000E+01  2.56789000E+01  3.74004000E+00  4.21175000E+01  9.62837000E+00
  2.85332000E+00  9.05661000E-01  2.55611000E-01  1.29200000E+00  8.58850000E+03
  1.29723000E+03  2.99296000E+02  8.73771000E+01  2.56789000E+01  3.74004000E+00
  4.21175000E+01  9.62837000E+00  2.85332000E+00  9.05661000E-01  2.55611000E-01
  1.29200000E+00
Contraction coefficients                   R   N=          66
  1.96665025E-03  1.52306019E-02  7.61269097E-02  2.60801033E-01  6.16462078E-01
  2.21006028E-01  1.14660081E-01  9.19999648E-01 -3.03068213E-03  1.00000000E+00
  1.00000000E+00  1.00000000E+00  2.54938145E-02  1.90373109E-01  8.52161486E-01
  1.00000000E+00  1.00000000E+00  1.00000000E+00  2.54938145E-02  1.90373109E-01
  8.52161486E-01  1.00000000E+00  1.00000000E+00  1.00000000E+00  2.54938145E-02
  1.90373109E-01  8.52161486E-01  1.00000000E+00  1.00000000E+00  1.00000000E+00
  1.96665025E-03  1.52306019E-02  7.61269097E-02  2.60801033E-01  6.16462078E-01
  2.21006028E-01  1.14660081E-01  9.19999648E-01 -3.03068213E-03  1.00000000E+00
  1.00000000E+00  1.00000000E+00  1.89515008E-03  1.43859006E-02  7.07320031E-02
  2.40001011E-01  5.94797026E-01  2.80802012E-01  1.13889012E-01  9.20811101E-01
 -3.27447036E-03  1.00000000E+00  1.00000000E+00  1.00000000E+00  1.89515008E-03
  1.43859006E-02  7.07320031E-02  2.40001011E-01  5.94797026E-01  2.80802012E-01
  1.13889012E-01  9.20811101E-01 -3.27447036E-03  1.00000000E+00  1.00000000E+00
  1.00000000E+00
P(S=P) Contraction coefficients            R   N=          66
  0.00000000E+00  0.00000000E+00  0.00000000E+00  0.00000000E+00  0.00000000E+00
  0.00000000E+00  4.02486927E-02  2.37593957E-01  8.15853851E-01  1.00000000E+00
  1.00000000E+00  0.00000000E+00  0.00000000E+00  0.00000000E+00  0.00000000E+00
  0.00000000E+00  0.00000000E+00  0.00000000E+00  0.00000000E+00  0.00000000E+00
  0.00000000E+00  0.00000000E+00  0.00000000E+00  0.00000000E+00  0.00000000E+00
  0.00000000E+00  0.00000000E+00  0.00000000E+00  0.00000000E+00  0.00000000E+00
  0.00000000E+00  0.00000000E+00  0.00000000E+00  0.00000000E+00  0.00000000E+00
  0.00000000E+00  4.02486927E-02  2.37593957E-01  8.15853851E-01  1.00000000E+00
  1.00000000E+00  0.00000000E+00  0.00000000E+00  0.00000000E+00  0.00000000E+00
  0.00000000E+00  0.00000000E+00  0.00000000E+00  3.65113974E-02  2.37152983E-01
  8.19701941E-01  1.00000000E+00  1.00000000E+00  0.00000000E+00  0.00000000E+00
  0.00000000E+00  0.00000000E+00  0.00000000E+00  0.00000000E+00  0.00000000E+00
  3.65113974E-02  2.37152983E-01  8.19701941E-01  1.00000000E+00  1.00000000E+00
  0.00000000E+00
Coordinates of each shell                  R   N=          96
  2.56023748E+00 -9.73441056E-02 -1.46301377E-03  2.56023748E+00 -9.73441056E-02
 -1.46301377E-03  2.56023748E+00 -9.73441056E-02 -1.46301377E-03  2.56023748E+00
 -9.73441056E-02 -1.46301377E-03  2.56023748E+00 -9.73441056E-02 -1.46301377E-03
  3.29764790E+00  1.00597720E+00 -1.59450214E+00  3.29764790E+00  1.00597720E+00
 -1.59450214E+00  3.29764790E+00  1.00597720E+00 -1.59450214E+00  3.29764790E+00
  1.00597720E+00 -1.59450214E+00  3.26815090E+00 -2.03836065E+00 -1.11067129E-01
  3.26815090E+00 -2.03836065E+00 -1.11067129E-01  3.26815090E+00 -2.03836065E+00
 -1.11067129E-01  3.26815090E+00 -2.03836065E+00 -1.11067129E-01  3.27678232E+00
  7.98115205E-01  1.72763639E+00  3.27678232E+00  7.98115205E-01  1.72763639E+00
  3.27678232E+00  7.98115205E-01  1.72763639E+00  3.27678232E+00  7.98115205E-01
  1.72763639E+00 -4.17932809E-01  3.93747953E-03 -3.35273990E-03 -4.17932809E-01
  3.93747953E-03 -3.35273990E-03 -4.17932809E-01  3.93747953E-03 -3.35273990E-03
 -4.17932809E-01  3.93747953E-03 -3.35273990E-03 -4.17932809E-01  3.93747953E-03
 -3.35273990E-03 -1.32039511E+00  2.19069200E+00  4.26712351E-04 -1.32039511E+00
  2.19069200E+00  4.26712351E-04 -1.32039511E+00  2.19069200E+00  4.26712351E-04
 -1.32039511E+00  2.19069200E+00  4.26712351E-04 -1.32039511E+00  2.19069200E+00
  4.26712351E-04 -1.51665603E+00 -2.09135350E+00  4.26712351E-04 -1.51665603E+00
 -2.09135350E+00  4.26712351E-04 -1.51665603E+00 -2.09135350E+00  4.26712351E-04
 -1.51665603E+00 -2.09135350E+00  4.26712351E-04 -1.51665603E+00 -2.09135350E+00
  4.26712351E-04
Num ILSW                                   I              100
ILSW                                       I   N=         100
           0           0           0           0           2           0
           0           0           0           0         402          -1
           5           0           0           0           0           0
           0           0           1           0           0           0
           1           0           0           0           0           0
           0           0      100000           0          -1           0
           0           0           0           0           0           0
           0           0           0           1           0           0
           0 -2000000000           1           0           0           0
           0           0           4          52           0           0
           0           0           5           0           0           0
           0           0           0           0           0           1
           0           0           0           0           0           0
           0           0           0           0           0           0
           0           0           0           0           0           0
           0           0           0           0           0           0
           0           0           0           0
Num RLSW                                   I               52
RLSW                                       R   N=          52
  8.00000000E-01  7.20000000E-01  1.00000000E+00  8.10000000E-01  2.00000000E-01
  0.00000000E+00  0.00000000E+00  1.00000000E+00  0.00000000E+00  0.00000000E+00
  0.00000000E+00  0.00000000E+00  1.00000000E+00  0.00000000E+00  0.00000000E+00
  0.00000000E+00  0.00000000E+00  1.00000000E+00  0.00000000E+00  0.00000000E+00
  0.00000000E+00  0.00000000E+00  1.00000000E+00  0.00000000E+00  0.00000000E+00
  0.00000000E+00  0.00000000E+00  1.00000000E+00  0.00000000E+00  0.00000000E+00
  0.00000000E+00  0.00000000E+00  1.00000000E+00  0.00000000E+00  0.00000000E+00
  0.00000000E+00  0.00000000E+00  0.00000000E+00  1.00000000E+00  1.00000000E+00
  0.00000000E+00  1.00000000E+00  0.00000000E+00  0.00000000E+00  0.00000000E+00
  0.00000000E+00  0.00000000E+00  0.00000000E+00  0.00000000E+00  0.00000000E+00
  0.00000000E+00  0.00000000E+00
MxBond                                     I                4
NBond                                      I   N=           7
           4           1           1           1           3           1
           1
IBond                                      I   N=          28
           2           3           4           5           1           0
           0           0           1           0           0           0
           1           0           0           0           1           6
           7           0           5           0           0           0
           5           0           0           0
RBond                                      R   N=          28
  1.00000000E+00  1.00000000E+00  1.00000000E+00  1.00000000E+00  1.00000000E+00
  0.00000000E+00  0.00000000E+00  0.00000000E+00  1.00000000E+00  0.00000000E+00
  0.00000000E+00  0.00000000E+00  1.00000000E+00  0.00000000E+00  0.00000000E+00
  0.00000000E+00  1.00000000E+00  2.00000000E+00  2.00000000E+00  0.00000000E+00
  2.00000000E+00  0.00000000E+00  0.00000000E+00  0.00000000E+00  2.00000000E+00
  0.00000000E+00  0.00000000E+00  0.00000000E+00
Virial Ratio                               R      2.002924750342726E+00
SCF Energy                                 R     -2.286787702654473E+02
Total Energy                               R     -2.286787702654473E+02
RMS Density                                R      3.083092940247941E-09
Job Status                                 I                1
Nuclear derivative order                   I                0
PCM-NSphere                                I                7
PCM-NGenSphere                             I                7
PCM-NOrd                                   I   N=           7
           1           2           3           4           5           6
           7
PCM-SphereRadii                            R   N=           7
  4.00253442E+00  2.99956228E+00  2.99956228E+00  2.99956228E+00  4.00253442E+00
  3.63772279E+00  3.63772279E+00
PCM-SphereLoc                              R   N=          21
  2.56023748E+00 -9.73441056E-02 -1.46301377E-03  3.29764790E+00  1.00597720E+00
 -1.59450214E+00  3.26815090E+00 -2.03836065E+00 -1.11067129E-01  3.27678232E+00
  7.98115205E-01  1.72763639E+00 -4.17932809E-01  3.93747953E-03 -3.35273990E-03
 -1.32039511E+00  2.19069200E+00  4.26712351E-04 -1.51665603E+00 -2.09135350E+00
  4.26712351E-04
External E-field                           R   N=          35
  0.00000000E+00  0.00000000E+00  0.00000000E+00  0.00000000E+00  0.00000000E+00
  0.00000000E+00  0.00000000E+00  0.00000000E+00  0.00000000E+00  0.00000000E+00
  0.00000000E+00  0.00000000E+00  0.00000000E+00  0.00000000E+00  0.00000000E+00
  0.00000000E+00  0.00000000E+00  0.00000000E+00  0.00000000E+00  0.00000000E+00
  0.00000000E+00  0.00000000E+00  0.00000000E+00  0.00000000E+00  0.00000000E+00
  0.00000000E+00  0.00000000E+00  0.00000000E+00  0.00000000E+00  0.00000000E+00
  0.00000000E+00  0.00000000E+00  0.00000000E+00  0.00000000E+00  0.00000000E+00
IOpCl                                      I                0
IROHF                                      I                0
Alpha Orbital Energies                     R   N=          90
 -1.90170664E+01 -1.90154689E+01 -1.02203687E+01 -1.01338642E+01 -9.88568816E-01
 -9.04355478E-01 -6.81549483E-01 -4.63941992E-01 -4.03628102E-01 -3.96585553E-01
 -3.92318496E-01 -3.55175181E-01 -3.29871601E-01 -2.21054603E-01 -2.02563503E-01
 -2.02051133E-01  7.29450802E-02  8.60569531E-02  1.30454786E-01  1.44765593E-01
  2.31039747E-01  2.84155183E-01  3.27917740E-01  3.37354410E-01  3.87469257E-01
  4.71347865E-01  4.81041926E-01  5.45139200E-01  5.74798369E-01  6.00449659E-01
  6.08545819E-01  6.56682100E-01  6.87285044E-01  7.86356547E-01  7.97494968E-01
  8.28535660E-01  8.68299323E-01  9.48658552E-01  9.53462288E-01  9.97254630E-01
  1.07279027E+00  1.21965384E+00  1.39825151E+00  1.45566470E+00  1.46339674E+00
  1.46971491E+00  1.51670741E+00  1.52521865E+00  1.53016495E+00  1.55687617E+00
  1.73467049E+00  1.82614311E+00  1.83253332E+00  1.89394705E+00  1.96276446E+00
  2.06742366E+00  2.21567764E+00  2.30322223E+00  2.36265103E+00  2.45071297E+00
  2.49772579E+00  2.51763687E+00  2.54120110E+00  2.63363213E+00  2.75224063E+00
  2.89900547E+00  2.91168169E+00  2.93109188E+00  2.97492912E+00  3.03828752E+00
  3.21605830E+00  3.30520044E+00  3.36063484E+00  3.43235979E+00  3.49865556E+00
  3.66437837E+00  3.78907008E+00  3.84028734E+00  3.94412244E+00  4.14528433E+00
  4.92336654E+00  4.97249850E+00  4.97766005E+00  5.06838253E+00  5.49038565E+00
  5.80003754E+00  2.38167695E+01  2.39301443E+01  4.99587539E+01  5.00549664E+01
Alpha MO coefficients                      R   N=        8100
 -6.95794195E-06  4.04437761E-05 -1.00739143E-04 -2.47559844E-05  3.10246475E-06
 -1.78520477E-04  4.97724048E-04  8.76331521E-05 -8.88777469E-06  9.73956782E-04
 -4.49595506E-04  1.53961919E-03  4.79375169E-05  2.45968692E-05 -7.07455795E-07
 -4.62271921E-07 -2.55128357E-04 -1.62013391E-04  4.84462657E-06 -3.21300624E-04
 -1.17051829E-04 -3.83451521E-05 -5.41689058E-05 -1.34043394E-04 -9.94086140E-05
  2.19860146E-04  3.89818053E-04  9.10852009E-05 -5.94645989E-05 -1.18723446E-06
  1.76104708E-05 -3.13202495E-04 -1.45126037E-04 -2.54502743E-05 -6.81167648E-05
  1.20229168E-04 -1.96480439E-05  8.44046686E-05 -1.95703018E-04 -3.22058952E-04
  9.53537792E-07  3.32157145E-04  4.45603319E-04  7.15773058E-04 -2.28039406E-06
  2.88340989E-03 -2.36500689E-03 -4.71033098E-03 -1.72972759E-06  1.71481699E-04
 -2.48858245E-06  1.42224915E-06  5.58918615E-04 -7.18299819E-04 -4.20413127E-03
 -3.53709686E-03  8.91016442E-06 -2.41742333E-05 -4.47774783E-07 -4.33949914E-04
 -9.14596050E-05  1.48286645E-04  1.73470963E-06  1.29056843E-03  9.29343771E-04
  3.25984032E-04 -4.45713551E-06  2.17813488E-05 -1.03240876E-06  9.80794444E-09
  2.03725076E-04 -9.24306757E-05  5.51278820E-01  4.69758613E-01  4.17641041E-04
  8.62660895E-04 -5.05731229E-07  1.34673989E-02  3.81126982E-04  7.21459063E-04
 -3.38075404E-06 -9.60270842E-03 -1.05349114E-03 -2.01898655E-03  7.96643662E-06
 -1.20711581E-04 -4.10458189E-07 -6.84739203E-07 -1.22280591E-04  1.78722931E-04
 -2.73051436E-06  2.39185768E-05 -1.06004675E-04  5.46823177E-05  1.67601288E-06
 -2.39366043E-04  6.19062075E-04 -1.83235644E-04 -4.75573778E-07  2.47256753E-03
 -7.11513016E-04 -7.71915481E-04  5.69083333E-05  6.62338379E-05  4.08079621E-07
  2.38700032E-06 -3.08022023E-04  1.79069852E-04  6.65971739E-05 -5.55829633E-04
 -3.42948858E-07  1.57807612E-04  9.42351190E-05 -1.18950414E-04 -9.43889211E-06
 -6.75916436E-04  5.68844081E-05 -2.03512162E-05 -1.78941627E-04 -2.37357860E-05
  8.32387424E-05 -6.13808265E-04 -5.82102905E-05  1.53908724E-04  8.64991606E-05
  1.33218397E-04 -1.89431274E-05  8.12751927E-05 -1.62277501E-04  3.33165035E-04
  1.34710073E-06  4.04143611E-04  3.75015110E-04 -7.21737906E-04 -3.52041887E-06
  2.22967458E-03 -2.33931356E-03  4.61510666E-03 -1.15280883E-06  1.91917553E-04
 -3.85195355E-06 -9.80379294E-07  7.00322596E-04  5.67549074E-04  5.51279502E-01
  4.69758443E-01  3.39228278E-04 -9.00108707E-04 -9.31324993E-07  1.34602916E-02
  3.23419980E-04 -7.54416005E-04 -2.22882184E-06 -9.44912082E-03 -8.33619126E-04
  2.11102669E-03  5.51830612E-06 -1.10046274E-04 -5.77074790E-07  8.34412983E-07
 -1.49008037E-04 -1.58020501E-04  4.20853935E-03  3.63134453E-03  2.55824877E-05
  3.06525063E-05 -7.53233328E-07 -2.31138403E-04 -1.27322517E-04 -1.04374304E-04
  2.68841668E-06  1.14477484E-03  9.96910386E-04 -4.46756895E-04 -6.28419676E-06
  1.37114080E-05 -1.17472358E-06 -3.04530345E-08  2.15980521E-04  6.69991556E-05
  5.32880811E-04  4.14925792E-04 -4.63476122E-04 -1.28759705E-05 -6.75581775E-06
  5.53166560E-05  1.16424247E-03  1.24569426E-04  3.51508061E-05  4.95722043E-03
 -2.39198143E-03  1.12678383E-04  4.40488089E-07  4.32757995E-04  7.71844859E-06
  1.60147056E-06 -5.24074088E-04  9.58528287E-05 -4.13125297E-05 -8.97751370E-04
  3.81041960E-04  5.34059865E-05  1.81676882E-04 -2.38551321E-04 -1.30847223E-05
 -6.65314523E-04  2.80909555E-04  2.18742789E-05 -1.86101437E-04 -9.32163704E-06
 -4.53079600E-05 -9.35109361E-04  4.00395248E-04  5.66049769E-05  1.57682937E-04
  2.77572175E-04  5.63041165E-01  4.63532389E-01 -4.21063909E-05 -3.66733240E-06
  2.70145738E-07  1.64136883E-02 -1.25024235E-03  9.24534452E-05  8.73246458E-06
 -3.20923539E-03 -5.00178178E-03  1.99139659E-04  4.72037980E-08 -1.68675935E-03
 -5.06711900E-06  3.18211723E-07 -1.52323091E-03  1.43662586E-04 -6.48728100E-05
 -4.96869411E-05  2.63925875E-04 -4.22753540E-04 -1.09311205E-06  5.12448100E-04
 -8.45264915E-04  1.20765597E-03  3.46529956E-06 -4.36719889E-03 -7.36611998E-05
  2.51482082E-03  2.55440779E-06  5.71770915E-04  1.37123532E-06 -2.83899068E-06
  5.28934419E-04  6.58726469E-04 -6.45543302E-05 -4.75838233E-05  3.04261315E-04
  3.91886496E-04 -1.06778271E-06  4.89272169E-04 -9.64626221E-04 -1.10700948E-03
  3.34575273E-06 -4.30718838E-03 -2.35971850E-04 -2.49789171E-03  2.87630677E-06
  5.65888852E-04  1.66936890E-06  2.71501200E-06  4.03442449E-04 -7.36385077E-04
  5.62937910E-01  4.63310333E-01  1.00075198E-04  6.00585249E-05  1.42151100E-05
  1.83471398E-02  1.75101584E-03  3.70897270E-05  1.28242978E-05 -6.50056500E-03
  8.32417958E-04 -9.05844027E-05 -4.64886561E-06  3.81357300E-04 -9.11438057E-06
 -1.65124049E-06 -7.96995088E-04  2.56837075E-05  8.38202437E-05 -2.76997452E-03
  1.49072575E-03  6.48102281E-04  1.16387698E-03 -1.69504520E-03  9.53332242E-05
 -2.84250146E-03  1.51859911E-03  6.13621571E-04 -2.06768722E-03 -1.18694848E-04
  8.39052773E-05 -2.74870981E-03  1.48087293E-03  6.22286858E-04  9.39762078E-04
  1.82903764E-03 -5.42831879E-04 -4.57002446E-04  4.02389283E-04 -2.49282707E-05
  5.51845228E-07  9.00026594E-05 -7.68029134E-04  9.24559440E-05 -1.79124922E-06
  1.55697893E-03  7.92083584E-04  1.88490662E-04  8.36336965E-06  9.13509326E-05
 -3.01296975E-06  4.61760720E-07 -6.50542937E-04  5.23976581E-06  4.25879468E-06
  2.69344105E-05  2.92736747E-05 -4.17599335E-05 -8.74778778E-07 -1.49907795E-04
 -1.61847046E-04  2.33243459E-04  3.57986082E-06 -3.52799757E-04 -1.02900598E-05
  4.50863604E-05 -6.30594659E-06  1.63111461E-05  9.19097792E-08  3.77348186E-07
  6.37888101E-05  8.80293633E-05  5.20062798E-06  3.30956977E-05  3.86789853E-05
  2.47645684E-05 -8.85855161E-07 -2.24015022E-04 -2.02158402E-04 -1.58340674E-04
  3.57626402E-06  6.40187330E-05  1.11683573E-04  2.28985619E-05 -6.53275773E-06
  6.17807208E-06  1.25729475E-07 -3.79134875E-07  2.88558802E-05 -8.16668528E-05
 -1.20936404E-02 -1.87110969E-02 -1.13465335E-02  5.09557248E-04  6.04554964E-06
  4.93196753E-02 -2.47115170E-02  1.56955626E-03  1.26181427E-04  1.20101970E-03
  2.26106347E-03 -8.80248022E-04 -8.34404028E-05 -2.53812264E-03  1.61037649E-05
  1.01075123E-06  6.04324564E-03 -2.33231356E-04  5.04908494E-03  8.59332094E-03
 -4.03564746E-05 -1.32273235E-03 -8.26725433E-04  1.88784932E-03  5.27786802E-03
  8.89388703E-03 -1.17028420E-03 -1.59181826E-03  2.39625845E-03  1.72205157E-04
  4.99100607E-03  8.50371524E-03  1.25031343E-04 -1.24938196E-03 -5.95133219E-04
 -1.93042263E-03 -7.73797872E-02 -1.18059068E-01 -4.36087313E-02  1.85372036E-03
  2.04119989E-04  3.14509436E-01 -5.70160907E-02  2.41276605E-03  2.92203722E-04
  8.48406721E-02  1.02510282E-02  6.85089970E-05  7.07616446E-06 -1.88816564E-02
 -2.24600520E-05  8.51572996E-07 -2.21925661E-02  2.27337453E-03 -7.12902008E-02
 -1.13782321E-01  1.70930064E-02 -4.81237391E-02 -6.19821047E-05  3.25153849E-01
  2.42985180E-02 -7.11443409E-02 -8.43377045E-05  2.20177650E-01  5.79469427E-03
 -2.52117725E-02 -1.54949931E-05 -4.44574053E-03  6.84888976E-06  1.90678572E-05
 -8.10797585E-03 -5.27940592E-03 -7.17201548E-02 -1.14474036E-01  2.14268799E-02
  4.65331236E-02 -6.17789030E-05  3.27230342E-01  3.07371357E-02  6.88314994E-02
 -8.32182078E-05  2.22035546E-01  7.90500504E-03  2.46703206E-02 -1.56736891E-05
 -4.37810814E-03  5.64465726E-06 -1.94529265E-05 -7.05011409E-03  6.68254467E-03
 -4.75800166E-04 -7.18098360E-04 -9.17537823E-05  6.83126739E-03  3.20147432E-06
  1.98034838E-03 -2.79368800E-04  1.08428048E-02 -1.59907804E-05 -1.21955881E-03
  3.19095494E-04  7.19046103E-03 -2.72740300E-05  1.45133487E-04 -6.05854286E-06
 -6.23811382E-05  2.87404659E-05 -3.89664843E-03  2.11848073E-03  1.91179148E-03
  8.74911814E-04 -6.20954395E-04 -2.49923967E-05  3.86981313E-04 -3.15585364E-03
 -8.71181150E-04 -1.24234783E-03  6.44683355E-04 -2.06342399E-04 -2.09531714E-05
  1.75204691E-03  1.77377050E-03  7.36493462E-04 -5.43442923E-04  4.27551763E-05
 -3.80217463E-04 -2.88552893E-04 -4.46330344E-04  6.15458025E-03  1.30312838E-01
 -5.66412491E-09  1.12381532E-03  8.10891145E-03  1.69215980E-01  2.49340368E-06
  1.30190165E-03  1.06637019E-03  1.14103949E-02  6.15804834E-06 -1.58053079E-04
  8.20326102E-06  1.31320460E-04 -2.59036075E-03 -2.75067572E-02 -8.23039419E-02
 -1.31682692E-01  2.27151021E-02 -4.04894215E-02 -8.56206948E-05  3.77261226E-01
  3.45361180E-02 -5.93214552E-02 -1.25729507E-04  2.79812749E-01  1.41464479E-02
 -1.86301556E-02 -4.94538422E-05 -4.44751090E-03 -7.06389822E-06  3.48006095E-05
 -4.70292483E-03 -8.67372188E-03  8.22313101E-02  1.31580473E-01 -2.61008520E-02
 -3.80472422E-02  8.48336280E-05 -3.77170328E-01 -3.94993161E-02 -5.57436703E-02
  1.24011996E-04 -2.79827485E-01 -1.56928764E-02 -1.70923221E-02  4.81287064E-05
  4.35800250E-03  9.61597360E-06  3.39322015E-05  3.08898438E-03 -9.37254932E-03
 -1.04713780E-01 -1.62414012E-01  2.79882637E-03  2.67015109E-03  5.40017342E-04
  4.29224006E-01 -6.11482479E-03  3.89258072E-03  7.32250575E-04  2.38552361E-01
  1.46311565E-02 -1.91743169E-03 -1.27624396E-04 -2.58022248E-04 -2.29582083E-05
  1.89849205E-06  1.48189399E-03 -1.21464847E-04  8.30120057E-02  9.96707766E-02
  1.01657164E-02 -5.79525456E-03 -8.52627738E-03  1.25977636E-02  8.11533716E-02
  9.41144606E-02  8.42160484E-03 -4.81853757E-03  1.50804888E-02  8.73948476E-04
  8.32887161E-02  1.00554817E-01  1.03976900E-02 -5.77295573E-03 -6.90680805E-03
 -1.36627071E-02 -2.01238016E-02 -3.17846509E-02  7.36432055E-02 -3.45683737E-03
  5.88535287E-05  8.82144048E-02  1.12825464E-01 -5.24376266E-03  1.26019311E-04
  5.77147026E-02  4.86413979E-02 -1.01836506E-03  1.94838922E-04 -2.28227686E-03
  9.53402652E-05 -3.30764779E-06  1.33404774E-02 -3.92272685E-04  1.97535254E-02
  3.18414377E-02  1.62452789E-02  4.68055032E-03  2.54614240E-05 -9.40102539E-02
  2.40624008E-02  8.04617181E-03  3.71730997E-05 -8.14821458E-02  1.28750658E-02
 -2.53733340E-03 -1.70139100E-05 -2.93214190E-04 -7.55543750E-06 -9.79401431E-06
  3.10632950E-03 -2.33008800E-03  1.85747962E-02  2.99435893E-02  1.53507571E-02
 -5.90904107E-03  2.44285070E-05 -8.83901731E-02  2.29909713E-02 -9.98290378E-03
  4.05823820E-05 -7.59462629E-02  1.19941408E-02  1.26954845E-03 -2.59525618E-05
 -2.59262974E-04 -6.09352974E-06  1.01583007E-05  3.46187504E-03  1.70518072E-03
  1.81915776E-02  2.82414202E-02 -1.16254726E-01  3.32335865E-03 -1.23472972E-05
 -6.89704761E-02 -1.77635841E-01  5.34719152E-03  1.28696322E-05 -1.18937037E-01
 -6.06837320E-02 -1.00752610E-02 -1.70994504E-03 -8.24116636E-03 -2.99751408E-05
  8.00573653E-06  1.70079523E-02 -1.27402920E-03 -5.11847148E-02 -5.69238893E-02
 -3.24169012E-02 -4.82143128E-03  4.00522614E-03 -4.87163974E-03 -5.33303498E-02
 -6.60467872E-02 -4.48642275E-02 -3.95850220E-03 -6.58193317E-03 -3.53077352E-04
 -5.05612943E-02 -5.53876152E-02 -3.02287375E-02 -5.09847609E-03  3.28120042E-03
  5.22534008E-03 -7.56254935E-02 -1.19512923E-01  5.66927349E-02 -3.00332211E-03
  7.17825860E-05  3.52669004E-01  7.77016331E-02 -3.72214986E-03  1.60085154E-04
  2.04902359E-01  1.26582611E-01  2.38324818E-03  3.84764326E-04 -3.89681512E-03
  1.03769643E-04 -1.04588162E-06 -3.81216677E-03  6.28217175E-04  4.06527183E-02
  6.58022657E-02  6.01560135E-02 -8.15357877E-02 -1.10408925E-04 -1.94364222E-01
  8.45657618E-02 -1.06415384E-01 -1.03542151E-04 -2.32213244E-01  5.61211112E-02
 -1.06760206E-01 -2.54689252E-04 -4.41483334E-03 -8.53656849E-06  9.84632483E-06
 -2.68509201E-03 -7.32079668E-03  4.06669935E-02  6.58720859E-02  6.78848337E-02
  7.65088910E-02 -1.17639738E-04 -1.95544343E-01  9.49277386E-02  9.95810223E-02
 -1.11602553E-04 -2.23182564E-01  6.72461930E-02  1.03098482E-01 -2.73396700E-04
 -4.43724361E-03 -1.01028602E-05 -8.70943713E-06 -1.32480789E-03  7.79590107E-03
  2.29444885E-04  3.68034453E-04  5.27436588E-04  4.31531195E-04  1.59915039E-01
 -1.07118548E-03  8.76603598E-04  6.06579850E-04  2.32460219E-01 -1.31759056E-03
  9.02879824E-04  3.77801671E-04  1.49293004E-01  2.80780569E-03  3.69493754E-03
  1.59031645E-02  1.21871761E-03 -8.16678645E-05 -1.06837998E-01 -1.40725462E-01
 -8.42481119E-02  5.97447065E-03  8.38079266E-03 -2.06479531E-03 -7.83568892E-03
 -1.02378710E-02 -6.36921154E-03  4.29979224E-04 -1.05025493E-03  9.89446435E-03
  1.16057203E-01  1.53352984E-01  9.10296326E-02 -6.34183685E-03 -7.34183225E-03
 -4.23515223E-03  7.98349676E-05  1.32082861E-04 -1.75008268E-03  3.11751906E-04
  1.15219913E-01 -4.08030684E-04 -2.57300243E-03  4.43737699E-04  1.73197461E-01
  3.99017662E-04 -7.66658003E-04  1.54400915E-05  1.22095069E-01  2.23143364E-04
  1.82624898E-03  1.39635132E-03  2.41091254E-04  2.06913401E-05  1.84659947E-04
  2.90641679E-04 -6.95906127E-04 -1.44732274E-03  8.15735155E-02 -7.35485346E-04
 -9.81559377E-04 -2.07008792E-03  1.18861380E-01 -1.72735513E-03 -1.05639126E-03
 -1.60685599E-03  9.68890696E-02 -6.89105223E-05  4.67436006E-03 -9.83654100E-03
 -1.89297519E-04  1.06515165E-05  6.38325987E-05  9.48544352E-05 -9.32337640E-04
  1.19719793E-03  7.85324272E-02 -1.43106153E-04 -1.28379229E-03  1.73395805E-03
  1.15075816E-01 -1.04804093E-03 -1.42483019E-03  1.29964153E-03  9.21488446E-02
 -4.46544405E-05  5.23712752E-03  9.34495538E-03 -1.82780122E-04 -1.71578720E-05
  1.21214877E-03  1.96403616E-03  7.31639742E-03  1.57417953E-01 -4.80660221E-04
 -4.57490109E-03  1.05844264E-02  2.25830907E-01 -7.38750004E-04 -1.75486819E-02
  1.09256781E-02  1.79978660E-01 -6.44702377E-04  1.25126669E-02 -1.15820767E-04
 -2.60616723E-03  6.20922533E-03  5.71943407E-03  7.26770627E-02  9.86486837E-02
  4.49856927E-02 -4.28771408E-03  2.96193652E-03  8.13682637E-03 -1.25842744E-01
 -1.60185578E-01 -7.87176071E-02  6.81842694E-03 -7.69924005E-03 -9.04216168E-04
  5.84056866E-02  8.03512154E-02  3.60987019E-02 -3.42960985E-03  4.98311498E-03
 -7.28228418E-03 -2.01757943E-04 -2.90188535E-04 -4.13228075E-03  1.02212182E-01
 -4.13882984E-04  3.31748832E-04 -6.56971737E-03  1.42625135E-01 -6.13630832E-04
  8.57874115E-03 -2.49742078E-03 -3.49031865E-02 -3.87002382E-04  2.83487572E-04
  1.76440939E-07 -1.74640329E-04  2.04818964E-03  1.46915641E-02  2.60663537E-02
  4.21301792E-02  7.01213896E-02 -8.11660035E-02 -7.92562587E-04 -1.26083126E-01
  9.66892938E-02 -1.11091512E-01 -1.07286928E-03 -1.42717587E-01  9.51749362E-02
 -1.04303085E-01 -1.16855938E-03 -5.81193701E-03 -6.71051461E-05  7.59817732E-05
 -3.15712494E-03 -8.16793816E-03 -2.43861438E-02 -3.94806286E-02 -8.48468655E-02
 -6.15932225E-02  1.63630934E-04  1.19512352E-01 -1.17071886E-01 -8.40381357E-02
  1.53032849E-04  1.25400542E-01 -1.17603492E-01 -8.02218713E-02  3.92948957E-04
  5.56348079E-03  2.97215725E-05 -3.69507640E-06 -8.09057658E-05 -8.83843094E-03
  4.09451306E-03  6.46562241E-03 -1.05297740E-01  8.16076874E-03  1.24039212E-03
 -1.74531128E-02 -1.49503743E-01  1.07649911E-02  1.64170251E-03 -1.36882068E-02
 -1.31935711E-01  3.10964242E-02  4.28251600E-03 -6.22072287E-03  6.86995192E-05
  7.09492611E-05  1.10711787E-02 -5.68611900E-04 -3.28723869E-02 -5.07530623E-02
 -1.35602751E-02 -4.55520815E-03  2.99331365E-03 -3.94337394E-03 -3.95882864E-02
 -4.71824019E-02  5.49448638E-03 -5.80088210E-03 -5.05164347E-03 -2.36624275E-04
 -3.11695571E-02 -5.00160639E-02 -1.55898561E-02 -4.40913131E-03  2.36834191E-03
  4.22227574E-03  1.73993694E-02  2.73518535E-02  1.64920862E-01  5.14692243E-04
  1.26768689E-03 -8.88152248E-02  2.35797226E-01  1.06197805E-04  1.86395223E-03
  5.19178331E-04  8.12311128E-02 -1.54221853E-02  9.82939457E-04  1.09731008E-03
 -3.71538351E-05  9.29532329E-06 -8.48027926E-03  1.10153194E-03 -2.20643976E-02
 -3.54591812E-02  5.28340046E-02  1.28896828E-01  1.17087970E-03  1.01069820E-01
  7.72411601E-02  1.78964988E-01  1.69515377E-03  1.56224758E-01  6.86766362E-02
  1.61748936E-01  1.50550446E-03  4.91044110E-03  5.78652771E-05 -1.52762467E-04
  1.44639206E-02 -2.92768352E-03 -2.54723621E-02 -4.09995696E-02  2.98289345E-02
 -1.45259496E-01  1.19941589E-03  1.18371116E-01  4.48155906E-02 -2.01895085E-01
  1.72987060E-03  1.65760197E-01  3.85394608E-02 -1.83680113E-01  1.56738103E-03
  5.79424966E-03  7.43042516E-05  1.51738814E-04  1.49458113E-02 -1.07473520E-03
 -8.39293278E-04 -1.32543613E-03 -1.13340012E-04 -1.23915151E-01 -6.11536748E-06
  4.61574683E-03 -9.90982956E-04 -1.76117533E-01 -3.24020461E-05 -4.05102057E-03
  2.97245299E-03 -8.62054392E-02 -2.51116988E-04 -1.08197892E-02  7.60077901E-05
  2.18401182E-03 -6.32483783E-03 -1.87674120E-02 -6.19023630E-02 -8.50550129E-02
 -7.01024401E-02  1.74226731E-03 -4.57012779E-03 -6.97660307E-03  1.11094401E-01
  1.58806852E-01  1.25803443E-01 -3.79477606E-03  6.53368139E-03  9.22406575E-04
 -5.00867188E-02 -6.82128988E-02 -5.64016170E-02  1.23644034E-03 -6.25121623E-03
  6.03930684E-03 -1.01152852E-03 -1.60381014E-03  2.99863183E-03  1.36653841E-01
  5.99529882E-05  4.90507802E-03  3.79123240E-03  1.84723796E-01  9.02125831E-05
  3.84780266E-03 -5.36125641E-05 -4.01305581E-02  1.21160387E-04 -8.44923001E-04
  9.39054185E-06  2.75284930E-04 -2.44001203E-03 -2.20404403E-02  2.14226079E-02
  3.46616187E-02  6.76308576E-02 -1.35488415E-01  5.20363581E-05 -1.03002999E-01
  9.20453613E-02 -1.83163610E-01  9.18379222E-05 -1.24158171E-01  9.78359088E-02
 -1.76620968E-01  3.95584960E-05 -6.68887179E-03  5.64229494E-06  2.77830737E-05
 -6.18715582E-03 -1.05126668E-02 -1.96284780E-02 -3.17476797E-02 -7.79168395E-02
 -1.21256340E-01  5.86748117E-05  9.42854753E-02 -1.05848037E-01 -1.64284524E-01
  7.74797947E-05  1.12875963E-01 -1.11896389E-01 -1.56176472E-01  7.91852932E-05
  6.25144757E-03  5.02893257E-06  3.81158719E-05  3.71315901E-03 -1.13756058E-02
 -1.35242053E-04 -2.18169993E-04  8.69395048E-04  9.91190965E-05 -1.23279354E-01
  4.50353282E-04  1.20080863E-03  1.58618239E-04 -1.73808961E-01  2.47820447E-03
  9.79465284E-04 -6.31360191E-06 -1.47822620E-01 -2.40025587E-03 -1.84018831E-02
 -1.38137717E-02 -1.24614917E-03  1.07091663E-04  9.35558621E-02  1.33831553E-01
  7.92621496E-02 -3.05042513E-03 -6.85743210E-03  1.63716121E-03  6.78555546E-03
  9.18781725E-03  5.41216891E-03 -9.64359331E-05  7.70715921E-04 -7.12978593E-03
 -1.00444918E-01 -1.44937047E-01 -8.52628444E-02  3.38722602E-03  6.10248883E-03
  3.27068414E-03 -7.85294911E-05 -1.27037762E-04 -2.05590623E-04 -1.67151193E-05
  1.30598588E-01  5.57107177E-04 -2.19103252E-04 -1.27039597E-05  1.83899696E-01
 -1.98654075E-03 -1.28605630E-04  7.09818966E-05  1.88088283E-01 -6.83622161E-06
 -2.48645880E-02 -8.43925570E-04 -1.61822231E-04  2.91328115E-05  1.19122998E-04
  1.96673475E-04  6.80018732E-04 -6.10674371E-04  1.29136927E-01 -6.63362616E-04
  9.45789814E-04 -8.23349068E-04  1.87387699E-01 -2.80848182E-04  1.16926133E-03
 -1.01187294E-03  1.64414546E-01 -8.17483054E-05  4.69977358E-03 -1.33168133E-02
 -1.22689712E-05 -5.51991308E-05  1.18852983E-04  1.97309116E-04  7.21467085E-04
  6.42641114E-04  1.36546067E-01 -6.83568341E-04  9.81246371E-04  8.66731748E-04
  1.97201478E-01 -1.73337018E-04  1.28946460E-03  1.05286671E-03  1.76537872E-01
 -8.25344512E-05  6.33611530E-03  1.30670956E-02 -9.91020421E-06  6.34335286E-05
  3.73818552E-06  7.37948761E-06  8.93536362E-05  8.85879676E-04 -8.09785346E-03
 -2.68993231E-05  9.23192861E-05  8.44422638E-04 -9.62418648E-03  5.22974977E-05
  5.01726898E-04  1.33132553E-02 -6.60192307E-02 -1.22996915E-04 -1.88093687E-03
  6.31460451E-04 -4.31179623E-05  2.73492684E-04  3.69308337E-03 -1.38960006E-02
 -4.85965110E-02  3.70166615E-03  3.05186612E-04 -9.35085528E-04 -1.13443486E-05
  3.33245074E-03  6.36537667E-03 -3.96730818E-04  1.82505286E-04 -1.84887314E-04
 -3.70693543E-03  1.05639584E-02  4.23305627E-02 -3.30791861E-03 -2.56446520E-04
 -8.21111173E-04  7.25265129E-07  7.25106442E-07 -2.58091161E-05 -1.75163818E-04
  8.28352701E-04  2.05718236E-05 -3.32294976E-05 -4.90431010E-04  1.66402376E-03
 -2.77465152E-04 -2.74084493E-04 -5.26397192E-03  1.31189697E-02  3.89037294E-06
  2.98124500E-03  5.72166594E-02  3.21001799E-05  5.65250511E-04  9.39788921E-06
  2.52955204E-05  1.64262452E-03  8.12722598E-04  2.15933256E-01 -3.35804341E-04
  2.41805832E-03  1.02395054E-03  2.98775256E-01  2.98094759E-03  2.81072290E-03
  8.14148389E-04  3.50565265E-01 -3.06187971E-05  4.93817146E-03 -1.01300566E-02
  7.36535112E-05 -7.46604439E-05 -1.12891620E-05 -2.76627437E-05 -1.41452699E-03
  9.60608866E-04 -2.11191992E-01  3.26755938E-04 -2.11751350E-03  1.24097612E-03
 -2.91262548E-01 -2.84071941E-03 -2.44502621E-03  1.11387532E-03 -3.48123109E-01
  2.44678415E-05 -5.77448874E-03 -9.28603876E-03 -8.40563539E-05 -5.23581984E-05
  2.43576648E-02  3.88651382E-02  1.21701781E-01 -8.45124304E-03  1.67945147E-03
 -1.07357261E-01  1.80491977E-01 -1.42965670E-02  2.21940362E-03 -3.42892929E-01
  2.13353518E-01  3.45890128E-02  9.21532990E-03 -1.77751264E-03  2.36177966E-04
  2.80526901E-04 -4.32697621E-03 -4.07754830E-04  1.20648520E-02  1.70746484E-02
  5.76797612E-02  6.26518491E-03 -1.28866928E-03  2.46313031E-03  2.93579166E-02
  8.10386553E-02  9.72293916E-02  4.56783077E-03  4.75897393E-03  4.70828000E-04
  1.37571317E-02  1.69349334E-02  5.20096532E-02  7.08142773E-03 -1.33351738E-03
 -2.55629397E-03  2.27677004E-03  4.25264836E-03 -5.55032575E-02 -1.18715428E-03
  1.70406432E-04 -1.55504332E-02 -1.03183361E-01 -3.46849014E-03  3.36258975E-04
 -6.97334811E-02  1.47248603E-01  5.33077391E-03 -2.01581220E-03 -4.63696797E-03
  7.39387146E-05 -1.50670894E-04 -6.12526137E-02  2.13376636E-02 -2.82385851E-03
 -4.35287605E-03  2.33926152E-01  3.59369656E-02 -1.32196099E-03  9.28925696E-03
  3.24481426E-01  5.57794591E-02 -1.93251442E-03  6.62827597E-02  3.62465159E-01
  3.81134938E-02 -1.64597747E-03 -1.02955139E-03 -1.94720781E-05  5.10724977E-05
  3.73579825E-03 -7.97970258E-03 -4.26521633E-03 -6.60020395E-03  1.27482944E-01
  3.23062044E-02 -1.00410661E-04  1.61307492E-02  1.71645243E-01  3.55262460E-02
 -2.04451275E-04  7.51502180E-02  1.97027214E-01  6.84381939E-02  2.81156547E-04
 -1.08879858E-03  1.12634106E-05  3.60038526E-06 -9.01539452E-04  4.26324115E-03
  8.34699674E-03  1.32881065E-02  4.11733032E-02  3.54949259E-02  4.23275408E-04
 -3.47997883E-02  6.08305079E-02  5.36924088E-02  5.66101841E-04 -1.36720518E-01
  7.38193722E-02  3.92518338E-02  2.21522183E-03  2.94866926E-03  3.42123501E-05
 -6.87938706E-04  1.38744902E-03  5.31070546E-03  2.64706839E-02  5.95620253E-02
  2.31414735E-02  4.00953500E-03 -2.71597029E-04  4.36601651E-03 -2.95088718E-02
 -5.56176194E-02  2.88626181E-02 -2.76979999E-03 -2.63341610E-03 -1.69055941E-04
  2.27074456E-02  5.04946923E-02  2.15517382E-02  3.83612493E-03  8.24328809E-04
 -4.10852563E-03  7.64107740E-04  1.46479744E-03 -1.77299104E-02  1.17899565E-02
  6.90315533E-05 -6.72994776E-03 -3.41470274E-02  2.26312502E-02  1.32554884E-04
 -5.58722315E-03  5.02238569E-02 -1.17042688E-01 -4.58014275E-04 -1.41056316E-03
  4.62049444E-05  3.78459839E-04 -2.50210596E-02 -4.35577922E-02 -3.14262161E-03
 -4.70867438E-03 -1.09601768E-01 -1.20905039E-01  1.45694022E-03  9.27309081E-03
 -1.58341603E-01 -1.60523032E-01  2.06355748E-03  7.70693664E-02 -1.70202657E-01
 -1.99776382E-01  2.32964930E-03 -4.44823395E-04  3.91646860E-05 -6.99862493E-05
 -7.84302747E-03  3.90212502E-03  7.10721433E-04  9.00044210E-04  2.15422096E-01
 -1.39201564E-01 -1.85695547E-03  7.59629912E-04  3.04304582E-01 -1.91886487E-01
 -2.66388497E-03 -3.77250998E-02  3.28366517E-01 -2.17979384E-01 -2.73953123E-03
 -2.66413051E-05 -5.13096129E-05 -7.58445794E-05  9.67395610E-03  6.04305441E-03
 -5.34446144E-02 -8.27081113E-02  7.23567089E-02  1.09506483E-02  3.84932256E-03
  1.48022713E-01  7.70434554E-02  1.19498829E-02  4.22784285E-03  1.76857042E+00
  4.40355126E-01  9.99680043E-02  3.15668485E-02 -4.61838826E-03 -6.91999261E-04
 -2.44089522E-04  4.15261630E-03  4.88123415E-04 -1.18511797E-02 -1.15832167E-02
 -9.57440823E-01 -1.44178638E-03 -5.95240817E-03  9.70635030E-03 -1.19556832E-02
  1.29800290E-02 -8.10851219E-01 -3.76224158E-03  1.01729908E-02  6.54463122E-04
 -1.42486527E-02 -2.13708907E-02 -1.01323467E+00 -1.31184543E-03 -5.06357748E-03
 -1.07992895E-02  4.39978023E-03  7.62372904E-03 -6.50933490E-03  9.50396919E-04
  4.88329725E-03 -1.25368318E-02 -2.81814287E-02  1.69579849E-03  7.98751867E-03
 -1.90663996E-01  1.70185218E-01 -1.77456794E-02  8.49767218E-03 -7.17774517E-03
  5.76590439E-04 -3.62573949E-05 -7.86471360E-03  1.34502636E-03 -1.01209667E-02
 -1.63059812E-02  2.18915789E-02 -3.77797461E-03 -3.12923498E-03  4.37926325E-02
  3.01497237E-02  1.14288610E-03 -3.95107753E-03  1.99168994E-01  4.89014504E-02
 -6.91394288E-02 -7.86225268E-03 -2.06325358E-03  1.20474863E-04 -1.47050088E-04
 -1.39395152E-03 -2.36055501E-03 -9.99523422E-03 -1.60841693E-02  2.54691651E-02
  3.03801476E-03 -3.52296724E-03  4.29453951E-02  3.30905733E-02 -1.49055544E-03
 -4.54824126E-03  1.91297089E-01  6.49093661E-02  6.36498745E-02 -8.45643558E-03
 -1.54609195E-03  1.57782637E-04  1.14275823E-04 -1.17818707E-03  2.66525068E-03
  1.30617764E-03  2.00064963E-03 -4.14036623E-03 -4.29227105E-04  6.38516124E-02
 -2.51340254E-03 -5.59145057E-03 -4.80533155E-04  6.40513161E-02 -5.13653432E-02
 -2.44271721E-02 -4.56827161E-03  5.24424595E-01 -2.43337217E-03 -3.79668378E-02
 -1.35760388E-02 -1.26018647E-03  7.47083159E-05  4.77072546E-02  1.25832220E-01
  8.07877335E-01  9.47152053E-03  5.92942967E-03 -6.48927524E-03  3.79786698E-03
  1.00219351E-02  8.01326391E-02  5.07320602E-04 -8.71103945E-04 -4.59074587E-04
 -5.03631742E-02 -1.29478726E-01 -8.04030195E-01 -1.07810763E-02 -5.07758086E-03
 -7.26755965E-03  3.35382930E-05 -1.55439056E-06  2.93301721E-04 -3.23924314E-05
  2.10158749E-01  1.01390415E-03  1.50645031E-03 -4.78603924E-05  3.49583767E-01
 -9.43033157E-03 -7.48749820E-03  1.36881100E-03  4.64476726E-01 -5.49292530E-04
  2.38777620E-02 -1.53992207E-03  6.68162379E-04 -1.14353112E-04  3.68984633E-04
  6.02329508E-04 -1.82093575E-03 -7.96975775E-04 -1.30757583E-01 -1.81862105E-03
 -2.41684492E-03 -1.30251278E-03 -1.69990304E-01 -5.06703117E-03 -3.69013852E-03
 -3.35685801E-04 -3.21117251E-01 -1.18378601E-04  3.71715262E-03 -8.54154240E-03
  5.72181110E-05  1.50266081E-04  3.69182130E-04  6.06015324E-04 -1.87663545E-03
  8.19064026E-04 -1.47871962E-01 -1.91762005E-03 -2.43230189E-03  1.33660304E-03
 -1.95783403E-01 -3.90915660E-03 -3.82926087E-03  5.82496851E-04 -3.48818240E-01
 -1.30168358E-04  5.61997330E-03  7.04174527E-03  4.36690615E-05 -1.52772398E-04
  2.08987234E-03  3.02881283E-03 -1.45031859E-02  1.71655993E-01  4.49472680E-04
 -3.05580898E-03 -2.21720218E-02  1.51909918E-01  3.42277946E-04 -7.39790679E-02
 -7.79797181E-02  1.15027673E+00  2.68736998E-03 -1.98803442E-02  1.36767742E-04
  4.31969809E-03 -1.39211391E-02 -1.89850693E-02 -1.19291857E-02  9.10638974E-03
 -1.04107383E+00 -9.03393104E-03 -5.72986630E-03  1.81216836E-02  2.76679385E-02
 -2.71036896E-02  2.10372454E+00  1.59060228E-02 -3.71205911E-02 -2.50843422E-03
 -9.20043717E-03  7.76016998E-03 -8.35582577E-01 -7.17589391E-03 -1.40411544E-03
 -1.57779988E-02  2.12738866E-04 -1.76761969E-04 -1.35739175E-03  7.36041220E-03
 -1.99921063E-04  1.35143093E-02  1.21900561E-03  5.06319251E-03 -3.08952663E-04
 -1.13736825E-01 -4.48485821E-02 -7.90958134E-02 -7.73200606E-04 -5.07519186E-03
 -1.10166474E-05 -5.99531412E-05  6.28228044E-03  2.26885396E-02  1.63499846E-03
  2.80327034E-03 -1.82385184E-02  1.24434067E-02 -2.33831685E-03 -1.32815311E-02
 -2.23208327E-02  1.55679665E-02 -3.43474572E-03  4.56601316E-02 -3.54931084E-02
  6.37135086E-03 -4.14367106E-03 -2.33042539E-03  2.05058011E-04  1.83887587E-04
  8.85585812E-04 -5.51979771E-04  1.29023337E-03  2.00887157E-03  3.30363073E-03
  2.73369210E-02  2.64018342E-03 -2.52153675E-03  5.65798216E-03  3.75717901E-02
  3.89495305E-03 -5.90067626E-02 -2.03483136E-03  3.90849691E-02  4.70858678E-03
 -2.35006986E-04 -1.93922110E-04  1.73381805E-04 -7.86224612E-04 -2.80638115E-03
 -3.15635985E-04 -4.45157851E-04  2.77882481E-03  6.33614539E-04 -1.62008816E-01
  7.34364274E-04  3.35183416E-03  5.09967147E-04 -1.41765871E-01  8.89513766E-03
  1.33563341E-02  3.93638962E-03 -9.63630065E-01  3.12177933E-03 -1.28010165E-03
  2.12033893E-02  2.17047486E-03 -2.79517656E-04  2.76219958E-03  1.37362059E-01
 -1.53266367E+00 -9.48915497E-03 -2.13879576E-02  2.39781396E-02  6.92059027E-05
  1.23807354E-02 -1.14557098E-01 -7.44698844E-04  2.95281522E-03 -9.03393537E-03
 -3.73911693E-03 -1.41852702E-01  1.61520254E+00  9.17940610E-03  1.82475572E-02
  2.83990713E-02  1.35603785E-04  3.12243115E-04  3.40026690E-04  7.58715572E-06
  1.13948994E-01 -2.91387531E-03  2.99102223E-04 -4.42319705E-05  1.73876947E-01
  9.93159036E-03  4.84379878E-03 -4.70011754E-04  4.24224129E-01  6.94420842E-04
  1.98945046E-03 -1.27989400E-03 -6.44282419E-04  1.86271712E-04 -2.69672670E-04
 -4.31746777E-04  1.11866098E-03  1.26802043E-03 -9.81223112E-02  1.13670309E-03
  1.02726814E-03  1.86383083E-03 -1.30601553E-01  3.34748566E-03  3.79863163E-03
  2.07626711E-03 -2.47165660E-01  1.70559328E-04  3.49775638E-03 -3.81086714E-03
 -4.11650196E-05 -2.26743763E-04 -2.75491233E-04 -4.44956307E-04  1.10283491E-03
 -1.11417439E-03 -7.35478588E-02  1.27707862E-03  1.03739234E-03 -1.66635325E-03
 -9.53824210E-02  2.62671210E-03  3.49038613E-03 -1.98548076E-03 -2.02006444E-01
  1.70752636E-04  1.88515160E-03  5.21032504E-03 -1.34476777E-05  2.05462935E-04
  2.28538349E-02  3.39512610E-02  1.24878003E-01  6.23638576E-03  1.63672852E-03
 -1.10678833E-02  6.23395908E-02  2.63877337E-03  8.52857144E-04 -1.29396247E+00
  2.03462250E+00 -1.13777012E-01 -9.62293311E-03 -2.27821634E-02 -9.91070120E-04
 -1.37226358E-04  4.33096458E-02 -7.07330875E-03 -2.35654435E-02 -1.55508132E-01
 -2.02425519E-01  1.06678189E-02 -8.82922539E-03  6.90676509E-03 -2.41679574E-02
 -2.94434691E-01 -5.66862057E-02  2.24433444E-02  2.78143806E-03 -1.26272258E-04
 -2.42393644E-02 -1.37428761E-01 -2.17218539E-01  8.69385199E-03 -8.00101621E-03
 -8.80390148E-03 -5.70768823E-02 -9.41999731E-02  1.61131372E-01 -7.90771456E-03
  1.82340068E-03  2.44271116E-01  2.83812284E-01 -1.41100966E-02  3.86371409E-03
  2.59078892E+00  1.19484133E+00 -3.68442658E-02  8.55419134E-03  1.13155495E-02
  5.78256455E-04 -1.85218605E-05 -9.85778002E-03  2.42374330E-03  6.81249429E-03
  1.10604023E-02 -4.11140988E-02  3.72994092E-02 -8.57939627E-04 -2.57329256E-02
 -4.21748417E-02  6.34528989E-02 -1.10724619E-03 -2.47136992E-01 -2.38868525E-01
  1.12699080E-01 -2.57598589E-03  3.82215649E-03  2.08290711E-05 -1.36104210E-04
  2.53985637E-03 -6.33888231E-03  8.58643880E-03  1.40231645E-02 -5.03578416E-02
 -3.12819495E-02 -8.27512667E-04 -3.56643270E-02 -5.23455571E-02 -5.67636312E-02
 -1.03298479E-03 -2.57134944E-01 -2.76110462E-01 -8.99641293E-02 -2.59132188E-03
  4.27926476E-03  3.36187668E-05  1.39386787E-04  4.32807225E-03  5.12253641E-03
  1.76120874E-03  6.29462475E-03  8.20599385E-02  5.30127764E-03  1.26758303E-03
 -9.18815203E-02  2.58501760E-01 -1.34781852E-03  1.88423657E-03  8.49214284E-01
 -5.09858124E-01 -1.19263917E-01 -2.71423125E-02  5.87011669E-03 -1.55763912E-03
 -8.33339866E-05 -4.24534315E-03 -5.62137173E-03  2.72054588E-03  8.27310308E-02
 -1.98287900E-01 -1.71274213E-03 -5.76075149E-03  2.73911415E-03 -4.48060717E-03
 -1.13574316E-01 -4.32415972E-02  9.95773704E-03 -5.48610192E-03 -6.33322030E-04
  3.26349248E-03  1.10329935E-01 -2.18660031E-01 -3.93238587E-03 -5.74107815E-03
 -4.74942275E-03 -1.34939923E-02 -1.90399540E-02 -6.52881248E-02  1.56662940E-03
  2.27477914E-03 -1.08472282E-01 -1.65784258E-01  7.31143202E-03  5.33253691E-03
  2.05424293E+00 -1.56939629E+00  1.16031416E-01  1.43193718E-02  2.02459187E-02
  4.45140220E-04  2.38053187E-05 -3.26790087E-02  3.53903701E-03  3.68087271E-02
  5.90265571E-02  4.98674753E-02  7.99960100E-02 -6.01637867E-04 -1.33782596E-01
  5.80063568E-02  7.90417537E-02 -4.76592634E-04 -1.26982592E+00  9.28187687E-02
  7.19935342E-01 -3.00590870E-03  1.17065505E-02  5.18644849E-07 -2.14424296E-04
  6.19454741E-03  1.20351487E-02  3.93039498E-02  6.33946720E-02  3.21158197E-02
 -8.05159629E-02 -5.99634953E-04 -1.53550820E-01  3.91347632E-02 -7.55292931E-02
 -4.02360739E-04 -1.24186984E+00  4.64884361E-03 -7.23749795E-01 -3.17918105E-03
  1.13838219E-02  3.04135162E-05  2.14956803E-04  4.85089897E-03 -1.36501301E-02
  2.66391613E-03  4.43855721E-03  1.41983918E-02  2.44153415E-02  3.17957627E-04
 -1.90248738E-02  3.53195842E-03  1.18680243E-01  6.76875989E-04  1.78948657E-01
 -1.15077039E-02  6.25064988E-01 -9.29528608E-04 -1.11161237E-02 -9.82991404E-05
  1.32288336E-03  5.06790642E-03  2.29076326E-03 -5.17050605E-02 -5.72763666E-01
  2.36460914E-01  5.81539286E-04  3.51189126E-02 -4.44154625E-03  9.80764850E-02
  1.02037692E+00 -4.81776183E-01  4.17702761E-03  4.22073666E-02  7.88073443E-04
 -4.16402180E-02 -4.62681768E-01  1.86277686E-01  4.41367588E-04  3.43640093E-02
  3.48141689E-03 -7.35871105E-03 -1.24948568E-02  1.70293783E-02  4.19880718E-02
  2.97129364E-04  4.64671334E-02  5.99826992E-02  9.98006746E-02  8.11830376E-04
  9.18807226E-02 -2.38244797E-01  1.23155020E+00 -1.60319539E-04  8.68865593E-04
  1.74391350E-04  1.53812665E-03 -2.81504876E-04  1.63134149E-03  3.16340955E-02
  5.19542599E-02 -7.07777748E-02  2.49962184E-03 -1.02332672E-03 -1.48713886E-01
 -9.48254775E-02 -2.00610529E-02 -3.29002256E-03 -9.24906868E-01 -2.74458479E-01
  2.93692348E-01  3.69022908E-03  2.05675657E-03  1.04241070E-04  6.08881109E-05
  1.08120581E-02  4.51394392E-03 -1.94608688E-02 -3.09609709E-02  6.18072823E-02
 -2.10682517E-02  7.99769169E-04  6.56320156E-02  5.89532307E-02 -4.01850007E-02
  2.82458269E-03  7.36164340E-01  3.83819393E-01  1.31379619E-01 -3.39572735E-03
 -1.82816417E-03 -4.77237508E-05  1.16809207E-04 -6.48478542E-03  5.54387616E-03
  1.40998764E-04  2.48961597E-04  2.09799153E-03  1.05751108E-04  3.16177221E-02
 -7.36695483E-03 -2.64532805E-03  6.90933296E-04  8.83604762E-02  1.21917320E-01
 -3.34050194E-02  2.17026169E-02  1.57093771E+00  1.24315546E-05  4.41564569E-02
  2.76841262E-03  1.91353724E-03  4.36424127E-04  7.18417953E-02  1.09573548E+00
 -2.35391950E-01 -2.21244572E-02 -8.55833266E-03  4.52017833E-02  5.06567215E-03
  7.17747627E-02 -1.52574033E-02 -1.36571053E-03  5.21772707E-04  3.92481558E-02
 -7.68412498E-02 -1.22182885E+00  2.51132281E-01  2.67586218E-02  8.59525509E-03
  4.80571013E-02 -1.34228397E-03 -2.42418522E-03  2.74747422E-03 -6.45855688E-04
 -1.02039785E-01  1.45200326E-02  1.54988086E-02 -2.50973913E-03 -2.27398602E-01
 -4.81006781E-02 -1.16675480E-01 -3.66501848E-02 -4.52389431E-01 -3.19230079E-05
  8.93437433E-03 -1.33375837E-02  6.82788078E-04  2.99173343E-04  1.23244324E-03
  2.24221258E-03 -4.66156290E-04  1.44914126E-03  3.47629594E-02 -1.17953908E-02
 -4.44638094E-03 -6.07973210E-06  5.11332309E-02  1.00800722E-02  2.61448781E-02
  7.06073774E-03  1.13909488E-01 -3.17257154E-04  2.03130757E-03  8.11701938E-03
  3.95669102E-04 -1.06930487E-05  1.91091319E-03  3.27517198E-03 -1.27923001E-03
 -1.33779221E-03  1.34446966E-02 -1.25436406E-02 -5.15915269E-03  2.81539325E-04
 -1.16144779E-02 -3.84282181E-02  1.36687116E-02 -1.86814420E-02  1.59922551E-01
 -3.52001549E-05  2.51627762E-03 -1.02362480E-02  5.56422032E-04 -2.31505233E-04
  5.35517048E-03  9.18421758E-03  5.91790050E-03  6.76320404E-03  8.96250626E-04
  2.07640026E-02  4.79218285E-02  2.69260223E-03  1.66807280E-03 -1.00723229E+00
  1.78990880E-01 -2.29751878E+00  2.40707768E-02 -1.30732279E-02  7.51682648E-04
  3.25288743E-03 -1.56222710E-02 -6.51151093E-02  1.00533653E-02  7.98425287E-01
  5.75557063E-02 -5.14239507E-02 -3.46679999E-02  1.04634785E-02 -3.01908089E-03
 -8.69718057E-01 -1.90189916E-01  6.36875265E-02 -4.07305516E-02  1.19083953E-03
  6.20016336E-03  6.47493585E-01  4.17843722E-02 -4.37519571E-02 -3.02741256E-02
 -9.71668014E-03 -9.04312793E-05  1.64224007E-03 -3.38701935E-03  4.70651801E-02
 -3.10691575E-03 -6.75682869E-02 -7.67189060E-02  1.77620205E-01 -8.43763324E-03
  6.28975155E-01  9.07076332E-01  3.36220186E+00  1.29827274E-03  6.10554878E-03
  3.31651164E-04 -1.83693669E-03 -9.26542191E-03 -3.23722270E-02  2.09709029E-02
  3.05588957E-02 -1.70724403E-02 -6.12897564E-03  3.25600995E-03  1.82274141E-02
  1.00589436E-02 -8.50356503E-03  7.71782400E-03 -1.91847762E+00 -5.55400267E-01
  4.37753643E-01 -1.20735721E-03  1.28925750E-02 -2.96908519E-04  8.65664603E-06
  4.99370674E-03  3.35963119E-03 -3.24503622E-02 -5.11166206E-02  1.12338960E-02
 -1.03569267E-02 -2.18097817E-03  8.32035736E-02  1.30725105E-02 -3.65663923E-02
 -6.11645118E-03  1.95742439E+00  3.32650563E-01  4.65987936E-01  2.55195566E-03
 -8.09539367E-03  1.54591975E-04 -4.91688687E-04 -8.48940274E-03  7.79254450E-03
  6.59068172E-03  1.17506712E-02  1.56179131E-02  9.47789942E-04  2.78040872E-02
 -3.62425740E-02  4.39367468E-02  1.78098175E-03  3.19675062E-02 -3.08023912E-01
 -8.02901638E-03  5.44657312E-02 -7.82727296E-01 -2.98074185E-03 -1.09688478E-02
 -1.39891885E-02  1.38918727E-03  1.25735644E-03  6.93866688E-03 -1.89416190E-01
  1.02042529E-01  4.65661946E-02  5.58363857E-03 -1.08157914E-02  6.73653005E-03
  1.08423927E-01 -8.76695115E-04  1.66396618E-03  1.28218663E-03 -9.74425115E-03
  8.78339285E-04  3.74006788E-01 -1.42179541E-01 -5.08499772E-02 -3.55594267E-03
 -1.43743769E-02 -5.22406220E-03 -8.57110208E-03  8.69711758E-03 -2.49695892E-03
 -1.99722891E-01  2.18577312E-02 -1.54287873E-02 -5.91837157E-03 -8.27170488E-01
  1.37105704E-01  2.08071282E-01 -9.23690069E-02  1.66780828E+00  7.61757383E-03
  1.69262041E-02  4.06384619E-03 -2.86868690E-03  1.25595202E-03 -8.56873074E-04
 -1.39964354E-03 -8.03374049E-03  2.50924009E-03 -5.00892740E-02  3.68150225E-03
 -1.10965945E-02  6.39782252E-03 -9.76616087E-02  5.79612302E-02 -2.79204092E-02
 -1.86816478E-02 -1.74849301E-01  1.11859454E-04 -8.68878212E-03  1.30230380E-02
 -4.67369935E-04 -1.35891127E-03  1.02361830E-03  1.62958764E-03 -9.45053416E-03
 -6.19244326E-04 -4.49517882E-02 -2.86967561E-03 -1.14907852E-02 -1.09141229E-03
 -7.99629146E-02 -3.71947946E-02 -5.31313079E-02 -7.39460757E-03 -1.92851334E-01
  4.69962948E-04 -9.89476898E-03 -1.16648890E-02  2.43985618E-04  1.16175635E-03
 -6.31999423E-02 -1.13247060E-01 -1.59428144E-01 -8.77228418E-03 -1.12121726E-03
  4.11076669E-01 -4.38812559E-01 -2.00524234E-02 -8.03365081E-03  2.18289534E+00
  3.66593558E-01 -3.22618013E-01 -8.39914306E-02  9.42925896E-03 -2.36650148E-04
 -9.76748626E-04 -2.62667127E-02 -6.17280728E-03 -4.15288184E-02 -7.39358585E-01
  1.29501095E-01 -1.23368590E-04 -7.37541406E-03 -6.47309833E-03 -5.84792721E-02
 -9.98634845E-01  8.85123643E-02  3.80776804E-03 -5.92228074E-03 -1.70289129E-03
 -3.78597335E-02 -6.66754921E-01  8.26344461E-02 -7.62534902E-03 -7.90216685E-03
  2.98139350E-03  4.67270624E-02  7.71776637E-02 -1.04841345E-01  2.04429127E-02
 -2.07464141E-02 -2.28115111E-01  5.75858561E-02  4.38455674E-02 -9.13494075E-02
 -6.60753539E-01 -1.51049419E+00  5.96608222E-01  1.88506570E-01 -7.39353943E-02
  8.85658831E-04  2.75420351E-04  3.18903438E-02 -8.73526880E-03  5.03042560E-03
  7.78708063E-03  7.79279109E-02 -1.56106219E-02 -6.63238604E-03 -1.02254373E-02
  1.17259088E-01 -4.30142982E-02 -1.32749834E-02 -4.76509031E-01  2.05623410E-01
  1.68203825E-01 -1.78669572E-02 -3.24001721E-04 -8.40221565E-04  1.33016248E-03
  1.05637115E-03  1.31371995E-02 -8.30637780E-03 -1.39175001E-02  8.99405094E-02
  4.10367792E-04 -6.89034177E-03  4.26868992E-02  1.24000919E-01  4.25686158E-04
 -1.34669282E-02  1.31282886E-01  3.68852395E-01  8.08003860E-03 -1.91258762E-02
 -2.13438247E-03 -9.01455419E-04 -1.25884262E-03 -4.60903236E-03 -1.15292686E-02
 -2.43083509E-02 -4.45241330E-02 -1.11381506E-01  6.28109345E-03  1.01158154E-03
  3.05513449E-01 -2.37301933E-01  7.98978217E-03  1.68231268E-03 -2.02753906E+00
  1.45160915E+00  1.87604411E-01  2.76620928E-02  3.75411932E-02 -8.21918121E-04
 -1.94906478E-04 -4.12995244E-02  2.98515669E-03 -2.15086491E-02 -3.78390778E-02
 -1.18078279E-01 -3.58681423E-02  1.32208979E-03  7.48091526E-03 -6.57280989E-03
  1.49870483E-01 -8.82632507E-02 -3.22213087E-02  1.30009461E-02  1.01859788E-03
 -2.47025075E-02 -6.00986288E-02 -1.07384657E-01 -3.75194269E-02  1.96047951E-03
 -6.95908013E-03 -4.16582052E-02 -7.31348682E-02 -2.87078271E-01  1.04103878E-02
  1.19861112E-03  2.71258462E-01 -8.49179194E-01  2.21505792E-02  7.54502010E-03
  2.19402318E+00  2.14619592E+00 -3.21097818E-01 -2.20709770E-02  4.43221077E-02
  1.22952481E-03 -7.09274759E-05  1.41529958E-01 -5.31039742E-03  1.39321613E-02
  2.34695829E-02 -4.41981805E-02  9.77681150E-02  8.05075162E-04 -8.72640149E-02
 -7.85639547E-02  1.32129546E-01  1.30563758E-03  5.26780263E-02 -1.91404781E-01
  2.16067076E-01  3.05580722E-03 -8.58230645E-03  1.91803808E-04  8.91012467E-05
 -3.57327348E-02 -3.10121711E-03  1.72186859E-02  2.85765270E-02 -4.56580926E-02
 -9.00238923E-02  1.12685786E-03 -9.14967963E-02 -6.85905922E-02 -1.16073916E-01
  2.10178674E-03 -2.05724376E-01 -2.90047744E-01 -2.73346200E-01  2.79913798E-03
 -6.33361701E-03  1.46048924E-04 -7.33973327E-05 -3.38706349E-02  8.95011161E-03
  5.30146812E-02  9.48062434E-02 -1.82481066E-01 -4.85805219E-02 -1.23363673E-02
 -4.32669833E-01 -6.84430171E-01 -1.66735485E-01 -4.16395278E-02  1.26253949E-01
  7.58286684E-01  2.24629964E-01  6.43095042E-02  1.06935169E-02  2.19507357E-03
  4.18264679E-04 -7.76749882E-03  1.40166670E-02  8.31192583E-02  7.56438030E-01
 -6.12570688E-01  8.18215909E-03  2.32130592E-02 -4.53468613E-02  5.91245861E-02
  5.96618092E-01 -2.24988734E-01 -2.80840655E-03 -3.90709744E-02 -3.31690129E-03
  8.76704412E-02  7.81206636E-01 -6.90653270E-01  1.02593366E-02  1.94608239E-02
  4.97791928E-02 -2.39580735E-02 -4.66124720E-02 -2.63188249E-02 -1.33624390E-02
  5.20671302E-04  3.01726775E-01  1.33714134E-01 -5.63929183E-02 -3.14652424E-04
  4.62847169E-01 -5.13303920E-01  9.13217721E-02 -3.51450825E-03 -1.02777493E-02
 -2.51361460E-03  1.95850900E-04  1.45091750E-02 -1.74065874E-02  3.24888701E-03
  5.36809545E-03  5.76109207E-02  4.76094183E-02  8.39697570E-04 -1.58337891E-02
  1.07128313E-01  8.83677791E-02  2.63623067E-03 -1.83375746E-01  6.66574590E-02
  5.87277339E-02 -3.05453403E-03 -2.82056411E-03  3.04157767E-05 -5.49984495E-05
 -7.65457900E-03  2.20215325E-04  5.32131952E-03  9.11282459E-03  4.48098807E-02
 -5.95724112E-02  4.62006715E-04 -3.56517200E-02  7.83342508E-02 -9.86754756E-02
  1.62840078E-03 -1.24969640E-01  7.65579878E-02 -1.01683071E-01 -2.15657318E-03
 -5.41585578E-03  7.66364907E-05  4.76096970E-06 -1.00314686E-02  3.92582413E-03
 -1.46198430E-03 -2.61652014E-03  1.30358655E-02  4.11723130E-03 -2.76830788E-01
  7.77522535E-03  3.87177766E-02  1.51025701E-02 -9.67443708E-01  6.59973460E-02
 -9.74902188E-02 -2.54576169E-02  1.95172451E+00  4.85825667E-03  6.65319689E-02
  4.14564902E-02  6.91127180E-03 -1.62602735E-03 -7.18567853E-02 -3.39633897E-01
  1.53940088E+00 -3.76640198E-02 -3.52850581E-02  3.09596968E-02 -6.05630281E-03
 -4.56330448E-02  1.08257309E-01 -9.63265214E-04  5.32493038E-03 -1.93917529E-02
  7.12219800E-02  2.95313835E-01 -1.56988993E+00  4.25365151E-02  2.91852506E-02
  3.52376768E-02 -3.41881325E-03 -6.60346222E-03  1.55635863E-03  1.56806011E-03
 -2.62831600E-03  4.86308660E-02 -4.70962852E-03  6.77714719E-03 -8.23171589E-02
 -1.36615787E-01 -3.57090749E-02 -3.71946046E-03 -1.39808701E-01  3.52864034E-03
 -5.12482085E-02  9.41682105E-03  3.17415444E-03  8.95603323E-04  1.24006652E-03
  2.20130539E-03 -4.74814754E-03 -9.45374442E-05  1.38020800E-02 -1.07004546E-02
 -8.46495026E-03 -5.06967658E-03  3.77938563E-02  1.78962843E-02  2.58000552E-03
  9.80973434E-03 -1.82591653E-02 -1.14957358E-03  1.87493901E-03 -1.14340603E-03
 -4.70556291E-04 -6.61503451E-04  1.14006924E-03  2.03822625E-03 -4.55743507E-03
  1.40909758E-03 -2.70780249E-02 -1.03502320E-02 -7.62408207E-03  6.71155686E-03
 -7.19663648E-02  1.64960064E-02  2.96093146E-03 -4.94538377E-03  7.69083078E-02
 -9.36505140E-04  5.70385109E-03 -2.54716030E-03 -8.51912929E-05  4.41823059E-04
 -1.03750293E-02 -1.89772592E-02  5.40902733E-02 -2.56096965E-01 -9.67168545E-04
  8.33995531E-02  1.49880913E-01 -9.11062188E-01 -3.44960625E-03  2.62907253E-01
 -4.26490944E-01  1.71882167E+00  8.72660900E-03  2.00626407E-02  1.42960837E-04
 -6.36693106E-03  4.12149884E-02  6.24928519E-02  2.72843061E-02  5.44381523E-02
 -7.82268197E-01  2.02149684E-02 -3.89983074E-03 -2.15523654E-02 -8.50101438E-02
 -5.09055111E-01  1.84028290E+00 -2.06713953E-02  6.26529587E-02  4.77437642E-03
  2.01994011E-02  1.77590087E-02 -6.16943495E-01  1.76033023E-02 -9.50275764E-03
  1.70314036E-02 -1.66708288E-02 -3.26496442E-02  6.14686055E-03 -5.99382198E-02
 -2.35234757E-05  2.49094297E-01 -2.01696076E-02 -2.55803979E-01 -9.55839649E-04
 -6.84548608E-01 -1.95168398E-01  4.44764446E-01 -2.79901247E-04  1.44031633E-02
 -2.43506178E-04 -1.34988839E-03  8.84550809E-03 -7.42753694E-02  1.11488405E-02
  1.96046216E-02 -2.44896135E-02 -3.61903227E-02 -3.32368881E-03 -8.93069233E-02
 -2.42150676E-02 -9.35333578E-02 -8.87415303E-03 -1.13446969E-01 -6.03891808E-02
  4.87209879E-02  7.79962643E-03 -9.37737896E-04  3.61912005E-04  2.49553318E-04
  8.07860195E-03  4.53315953E-03 -1.50281336E-04 -1.27531355E-04 -1.65914831E-02
 -2.79812137E-02  2.80008581E-03 -5.35379041E-03 -4.33835739E-02 -3.21429913E-02
  7.36071477E-03  2.60740624E-01  8.16340038E-02 -3.51185118E-02 -6.20471604E-03
 -9.53933904E-03 -2.87830004E-04  2.02181265E-04 -9.57928400E-03  1.13910759E-02
  3.47804951E-03  6.53128813E-03  1.35778772E-02 -9.16296427E-02  1.51474691E-03
 -6.76565670E-02  2.44075590E-02 -2.11610644E-01  5.97982009E-03  4.63717393E-01
 -2.57689313E-01  7.18341902E-01 -1.52003308E-02  1.36053206E-02 -3.30520235E-04
 -4.26817883E-03  1.70019934E-02 -2.35988314E-02  1.66471621E-02 -2.14296166E-02
 -1.75073192E-01  4.28241846E-02 -1.04271252E-03 -1.68019961E-02 -1.98155163E-02
 -6.43434056E-02  3.57898199E-01 -5.36450155E-02  1.39454964E-02  1.12559880E-03
  1.39507768E-02 -2.52475317E-02 -1.18497799E-01  3.63526167E-02 -5.10405413E-03
  1.53806736E-02 -1.45483608E-02 -2.85647285E-02  1.52294341E-02  3.36489526E-01
  1.26318273E-04  2.19973197E-01  5.53970257E-02  1.06106782E+00  7.83855228E-05
 -6.25942274E-01 -3.17837809E-01 -9.63821512E-01  2.32582218E-03  1.26831461E-02
  5.86487464E-05 -6.48157925E-04  2.04731530E-02  9.98515697E-02  3.00280075E-02
  5.18444217E-02 -5.11083541E-02  9.47503347E-02 -1.35088965E-03 -2.03988974E-01
 -3.88713193E-02  8.86505739E-02 -4.21254777E-03  1.40473283E-01 -2.57472231E-01
  5.73282649E-01  5.24251327E-03 -2.66310597E-02 -3.97755199E-05  2.36323875E-04
 -1.07718083E-02 -3.26772146E-02 -2.30704116E-02 -3.92303815E-02  4.53384364E-02
  7.33859413E-02  1.07069086E-03  1.35017906E-01  2.15351118E-02  7.89258930E-02
  3.49120175E-03  1.71477060E-02  3.88044929E-01  5.26114368E-01 -5.26913927E-03
  1.75697720E-02 -1.47526439E-05  2.29810209E-04  3.32891801E-04 -2.84945919E-02
  3.72312208E-02  7.40839916E-02 -1.04625723E-01 -4.90625766E-02 -8.13086871E-03
 -5.05114597E-01 -1.15972225E-01 -1.76622002E-01 -3.04274790E-02 -1.00042988E+00
  2.02445836E+00  5.10506922E-01  9.01030350E-02  7.06760755E-02 -2.38426609E-04
 -3.26852744E-04 -9.35117481E-02  3.46482490E-03  2.04302995E-03  4.85156535E-02
 -7.30317971E-01 -3.44832883E-02  3.41078574E-02 -4.70432507E-02 -1.27619196E-04
  8.05113835E-02 -1.79521014E-01 -2.71022437E-02 -3.61902388E-02 -2.38392626E-03
  2.00628318E-03  4.85655693E-02 -8.04832345E-01 -3.88222002E-02  2.90542325E-02
  5.24709668E-02  1.05959598E-01  2.11898557E-01  2.96804979E-02  2.51260002E-02
 -9.63849010E-04 -1.67145623E+00 -2.12126706E-01  6.19379647E-02 -1.60032548E-03
  4.40015794E+00  1.96265717E+00 -2.95357521E-01 -1.20011756E-02 -5.70452679E-02
  3.70316515E-04 -3.78685430E-05 -9.12506139E-02  2.12431403E-02 -1.11849640E-02
 -2.01575814E-02 -3.31760163E-02 -8.95227672E-02  1.29982077E-04  1.17329617E-01
 -8.51244748E-02 -1.16705732E-01  3.02324416E-04 -4.61689273E-01 -2.05699571E-01
  9.84982260E-02  1.66042057E-03  2.88039158E-02  3.26919498E-04  6.94095496E-05
  2.79406355E-02  1.65629129E-02 -1.45956852E-02 -2.62837087E-02  2.06407364E-03
  1.08725637E-01  2.04050079E-04  1.50764048E-01 -2.71563214E-02  1.48190503E-01
  5.44046451E-04 -6.25303936E-01 -2.21645835E-01 -6.97435710E-02  1.50898837E-03
  3.54399320E-02  3.24674005E-04 -5.63306201E-05  2.27384812E-02 -2.63789256E-02
  3.93139262E-02  8.07904494E-02  1.77400125E-02  4.06464876E-02 -3.63584913E-04
 -8.49986699E-01  8.85439495E-02  7.26404912E-02  2.30680844E-03  3.52722665E+00
 -5.97460557E-01 -1.86744595E-02 -6.00077209E-03 -1.77811078E-02  2.70047963E-03
  5.01544525E-03 -3.76728843E-02  1.39768600E-01  8.52391430E-03 -5.48978067E-01
 -2.12033872E-01  5.65618944E-02  6.86802394E-02 -1.26235227E-02 -3.23171397E-02
 -3.93910378E-01 -2.39476576E-01 -3.94496407E-02 -7.23775224E-02 -6.11995050E-03
  8.57105983E-03 -5.28400508E-01 -2.13997635E-01  5.70895267E-02  6.89324817E-02
  2.04451946E-02 -6.59260140E-03 -2.37308249E-03 -2.95988733E-02 -8.39120053E-02
  1.19780758E-03 -1.38225309E-01  6.53622453E-02  1.02238814E-01 -2.58711671E-03
 -2.54501453E+00 -8.41572017E-01  4.76315672E-01 -2.03282181E-03  1.11872766E-01
 -1.08131204E-03  5.60649525E-04  7.05206438E-02 -1.74468111E-01  8.07209953E-03
  1.61253658E-02  3.83717740E-02  2.49436368E-03 -5.09089388E-03 -1.13346819E-01
  7.97119469E-02  9.78449977E-03 -1.55650899E-02  2.32191431E-01  7.83507502E-02
 -8.65385115E-02  2.10021567E-02 -2.52768968E-03  5.72994225E-05  1.89307390E-04
  1.87752166E-03  1.86224268E-02 -1.25721494E-02 -2.04337626E-02 -1.37076980E-01
 -1.81767002E-01 -2.20779705E-04  8.03786914E-03 -3.90096866E-01 -4.87963199E-01
 -3.87417915E-04  9.46297081E-01  8.97984318E-01  1.15997282E+00 -4.66901893E-04
 -1.82965271E-02 -7.42243691E-05  5.77871652E-05 -3.84944327E-03  9.49406163E-03
  6.75910556E-04  9.61226097E-04 -2.66123879E-02  5.47420782E-02  2.06208808E-03
  5.38525673E-04 -7.54468511E-02  1.11655708E-01  7.20866473E-03 -1.74680481E-01
  2.25689721E-01 -5.06693770E-02 -1.30389927E-02 -2.64744027E-02 -8.31567952E-04
  5.32494620E-03  4.63754232E-03  1.25641794E-01  2.49508485E-02 -2.32300772E-02
 -3.37850480E-02  3.41162445E-02  2.60299762E-02  2.48702146E-02 -4.46581595E-03
  2.40766812E-01 -2.09544108E-01 -4.22315411E-02 -1.17676938E-02 -4.77737678E-03
  2.22198357E-02 -1.67116956E-02 -1.39857235E-02  2.71848064E-02  3.37300846E-02
 -2.12477423E-02 -4.74780652E-03 -2.25694224E-02  2.13628930E-02 -7.84285266E-02
 -1.01661384E-04  4.61098177E-01 -1.42628781E-01  1.30010201E-01  1.44004944E-03
  1.09091625E+00 -4.24176122E-02  2.93022934E-01  3.49871429E-04 -1.19305467E-01
  4.37981460E-04  1.50565972E-04 -9.42908708E-02 -1.41596391E-01  2.26472423E-02
  3.95895489E-02  8.83412177E-02 -2.11941121E-01 -3.15758137E-03 -1.26059749E-01
  2.51673947E-01 -6.04625556E-01 -1.00552191E-02 -7.17453792E-01 -5.55819370E-01
  1.39310209E+00  1.51880817E-02  7.87283896E-03  3.87525478E-05  2.43392460E-04
  5.24385517E-03  5.02954858E-03  8.19475394E-03  1.41004525E-02 -6.34413172E-02
  5.13894004E-02  3.52498283E-03 -5.50638622E-02 -1.47629549E-01  1.75987510E-01
  1.08626500E-02 -1.35724164E-01  8.03430026E-02 -3.74924918E-01 -1.44763679E-02
 -6.38186940E-03 -6.09141187E-05  1.61599312E-04  3.59781979E-03  1.77931304E-02
  7.85095405E-02  1.63636311E-01  4.35687558E-03 -1.34866657E-03  5.47895333E-03
 -1.78908123E+00  1.18208321E-01  6.38705922E-02  2.52394782E-02  7.30454781E+00
 -1.19085431E+00 -2.80259558E-01 -4.97981493E-02  1.63309550E-02  5.69757070E-03
 -6.37798058E-03 -3.39597443E-02 -8.38572227E-02 -6.97343399E-03 -9.15995122E-01
 -4.40116325E-01  3.30106165E-02  3.67189644E-02 -1.18085192E-01  5.25101119E-04
 -1.07322187E+00 -7.19368164E-01  7.29628913E-02 -1.14423551E-01 -1.02618713E-03
 -2.10275238E-03 -9.36218735E-01 -3.68609599E-01  5.06950526E-02  1.50332499E-02
  1.20894333E-01 -3.42825125E-02 -7.43403064E-02 -7.91949584E-03  2.90965495E-02
  3.57937925E-03  8.56657631E-01 -1.34080349E-01 -1.17626968E-01 -1.16808510E-03
 -3.91553407E+00 -1.98249372E+00  8.49371781E-02 -1.29871800E-02  1.42978061E-02
 -2.66916360E-03  1.17865012E-03 -1.82321351E-02  7.17103914E-02  1.65259231E-02
  3.13289342E-02 -7.26997207E-02  9.86840644E-03 -1.54280014E-03 -2.05098771E-01
 -1.82755147E-01 -4.02617162E-02 -4.56697280E-03  5.44531522E-01  4.67081128E-01
 -2.24318585E-02  7.87736194E-03 -2.86209805E-02 -1.92962807E-04 -1.12150511E-04
  6.30394843E-04 -8.59598126E-03  1.96795776E-02  3.63960319E-02  3.90353105E-02
  4.74129779E-02 -1.19730859E-02 -1.92893172E-01  1.37484546E-01  1.86391451E-01
 -3.76208605E-02  2.99029741E-01 -7.14443169E-02 -4.58442978E-01  5.62141016E-02
 -2.23640326E-02 -3.19492234E-04 -6.63465767E-04  4.18815537E-03  3.88970951E-03
 -2.28999893E-03 -4.87709161E-03 -8.63393150E-04 -3.74090062E-03  3.34927318E-02
  5.58795786E-02 -7.56007811E-03 -1.97259475E-02  1.35081438E-01 -2.23346193E-01
  4.24496426E-02  8.69175123E-02 -3.90421541E-01 -4.10895080E-03  4.40387214E-02
 -3.20019560E-02 -4.62276340E-04  7.07171085E-03 -1.21592972E-02  3.60464361E-02
 -3.13345262E-01 -5.02497416E-02  1.56256417E-02  1.93446281E-03  7.17083462E-04
  4.68490017E-02  5.37181025E-02 -3.27420365E-03  2.73143056E-03  1.39738022E-02
  1.35578538E-02  1.73679234E-02  2.98551030E-01  5.08929845E-02 -7.85339340E-03
 -1.14887591E-02  9.94439630E-04  2.13345543E-03  7.88292188E-04 -2.28816640E-03
  1.63868490E-02 -2.36627138E-02  3.85374843E-03  1.06458274E-02  5.47270240E-03
  1.27993980E-01  4.76059970E-02 -2.97307089E-02  9.45264365E-03 -1.57930657E-03
 -2.62086508E-02  1.29777091E-01  1.41103020E-03 -6.60817865E-03 -4.06821546E-06
 -2.32575744E-05  2.85715383E-03 -4.18444385E-03  1.56749435E-01  1.63543244E-03
  6.88661905E-03 -1.06848999E-02  4.98551508E-01 -1.27028415E-02 -1.59451117E-02
  2.79642999E-02 -7.85705448E-01  7.26176359E-04  1.12270477E-03 -1.78381166E-02
  4.20332949E-06  4.90247378E-04 -3.58314184E-04 -6.56430555E-04 -4.74021711E-03
 -1.94698538E-03 -1.99041793E-01  2.77443080E-03 -1.56594736E-02 -6.66007625E-03
 -6.23766949E-01 -1.64495079E-02  2.34728000E-02  1.93551195E-02  9.51899440E-01
  9.51573486E-04 -8.41259477E-03 -1.47844689E-02 -3.61118800E-04  7.23712829E-06
 -1.94394944E-03 -4.43375975E-03 -1.98223123E-03 -2.77726601E-03  1.27604132E-02
  6.17678437E-02 -3.72634029E-02 -1.13216408E-03  4.28234787E-02 -2.85552430E-02
 -1.66691717E-02 -1.16468838E-01  1.60228458E-01 -3.96832273E-02  1.95638851E-01
 -9.00165753E-02 -3.87943306E-03  1.61444441E-02 -1.41964122E-02  1.16774504E-01
  6.30844207E-02 -1.13440150E-01  7.11398859E-02  5.84920132E-03 -3.66469518E-04
  3.84483737E-02 -9.84086745E-02 -3.69065653E-02 -7.27022755E-03  1.35669218E-01
  1.57193354E-02  1.20432514E-03  2.04883115E-02  1.58442226E-01 -4.93216654E-02
 -3.36919179E-02  6.51337099E-04  2.01232120E-03  1.04093349E-02  6.18579687E-03
  8.86781722E-02 -1.84249359E-02  2.28810973E-02 -7.52421789E-02  2.55441865E-02
 -6.37099287E-02 -2.32570770E-01  2.62638408E-01 -7.17880123E-01 -4.53728458E-03
 -1.04802438E-01 -4.67301391E-02  4.48023997E-02  7.95475758E-02  4.40545099E-03
  8.28813492E-03  1.78940215E-02  2.74309949E-02 -1.69260137E-01 -6.11146447E-02
  6.49587648E-02  7.69365768E-02 -5.46990165E-01 -3.27715492E-03 -4.90792007E-02
 -2.23785254E-01  9.96163148E-01  2.20499866E-03 -1.38685339E-02  1.05521980E-02
  4.51342392E-03 -6.64145916E-03  1.79162642E-04  6.94087179E-04 -5.75449666E-02
  4.91535795E-02 -1.18100788E-01 -3.91388998E-03 -2.13563114E-01  1.55107531E-01
 -3.87544355E-01  3.96865152E-02  4.15134933E-01 -3.37697325E-01  7.11225245E-01
 -7.76959783E-04 -1.03385822E-02 -2.54650114E-03 -1.20307046E-02 -1.15525098E-02
  5.80866360E-03  1.28127918E-02  7.94445728E-04 -9.52655198E-03 -3.67269472E-03
 -1.44825636E-01 -3.08425678E-02 -2.40453107E-02 -9.92727453E-03  9.41090800E-01
 -1.69215583E-01 -1.55412727E-01 -9.51125588E-02 -5.37577276E-02 -7.45772168E-02
  4.43952094E-02  1.37422389E-03  4.26664119E-02 -7.47127926E-03 -9.61384075E-02
  9.16883891E-03  8.72556100E-02 -9.22157141E-04  1.89712018E-02 -1.07829925E-03
 -8.63939194E-02 -2.46860150E-01 -6.11214485E-02 -3.59494170E-03 -5.40943955E-02
 -1.52163253E-02 -4.36702659E-02  3.67863111E-02 -2.05850999E-02  5.70703768E-02
 -8.57701624E-03 -2.17956936E-03 -3.69729850E-03  1.11808270E-02  1.31844830E-02
 -3.55280541E-02  5.51842164E-02  1.53872239E-02 -1.95725710E-01 -1.15086370E-02
 -6.32365898E-01 -5.62100666E-01  6.17038604E-01  3.04571777E-01 -4.84397206E-03
  3.86571369E-02  1.96320484E-02  7.18475648E-02  2.14017696E-01  1.10235801E-02
  2.06980569E-02  7.74280867E-02  8.02361670E-02  6.74925514E-02 -1.52158347E-01
  2.84614852E-01  2.26433984E-01  2.18622546E-01  7.84799742E-02 -3.66337441E-01
 -6.30467608E-01 -4.04007520E-01  3.69763154E-04  5.46006801E-03 -4.52239578E-03
  1.65854037E-02 -2.16600450E-02 -1.46948833E-03 -2.01291509E-03 -1.30345742E-01
  1.12434487E-01  4.82219704E-02  1.82696187E-02 -4.79558089E-01  3.54561164E-01
  1.59299439E-01  1.14554602E-01  9.05492959E-01 -8.06174017E-01 -2.96007925E-01
 -5.88442150E-03  4.17404808E-03  1.44532115E-03 -2.79969551E-02 -2.67706553E-02
  9.92154813E-03  2.40442207E-02  9.57130492E-03 -1.12194708E-02 -3.73429977E-03
 -3.44265190E-01  2.00302319E-01 -1.08704136E-01 -1.93656591E-02 -9.88886613E-02
  3.18088077E-01  6.15604516E-01  1.35134359E-01  6.66302458E-02 -9.50340098E-03
  2.94843508E-03 -6.85579369E-02  1.48687942E-02 -2.15937049E-02 -3.81968100E-01
 -9.38180858E-02 -4.36175093E-02  4.62785536E-02 -1.51533723E-02  2.28172360E-02
 -1.22741685E-01  2.81854713E-01  2.62475401E-02 -1.62405177E-02  1.42647321E-03
 -2.96616138E-02 -4.03343792E-01 -1.75311907E-01 -6.03215618E-02  5.21710275E-02
  1.70451938E-02 -6.58840088E-04 -3.79606129E-03 -7.14381398E-02 -1.26719349E-02
  8.93620357E-03  1.65860708E-02 -1.79006713E-01 -2.17647977E-04  8.53391589E-03
  7.35986455E-01  1.68980198E+00 -2.63520846E-01 -1.64188431E-01  5.41237437E-03
  1.80862709E-02  4.28614985E-04 -2.35332561E-01  6.87080253E-02 -6.43918703E-03
 -1.24193059E-02  1.74950639E-01  5.34307000E-02 -1.75897780E-02  9.22740964E-02
  6.26475204E-01  1.96761252E-01 -6.22756966E-02  7.32075441E-02 -1.47214693E+00
 -3.20125890E-01  1.37909355E-01 -5.24635134E-03 -5.63613406E-04  3.32928168E-03
  2.62824242E-02 -2.96292785E-02 -8.74435392E-03 -1.69856582E-02  7.27184962E-02
 -3.99761232E-02 -1.75187491E-02  1.34375545E-01  2.76962818E-01 -1.60609461E-01
 -6.20826193E-02 -1.59805695E-01 -8.99050538E-01  1.92881327E-01  1.38953948E-01
 -5.62413342E-04 -9.57674645E-04 -3.33098311E-03  1.34867842E-02  1.35768043E-02
  8.07378180E-04  2.16474847E-03  9.44392706E-04 -6.07851796E-04  3.38979499E-02
 -2.80954798E-02  1.25391932E-02 -9.35076306E-03  5.56029158E-02 -5.03799641E-02
  6.12889790E-02  5.25473141E-02 -5.50635186E-01 -2.15911777E-02  3.94014536E-01
 -1.95913344E-01 -2.16313618E-02 -9.70875927E-04 -2.87738869E-02 -6.99033913E-02
 -1.37516925E-01 -1.93700159E-01  1.51340518E-01  1.16343290E-02 -1.16744184E-03
 -8.90837295E-03  9.71420759E-03 -1.02031042E-02 -1.53136565E-02  1.88643604E-01
  2.20709165E-02  1.97399360E-02  1.12530239E-01  1.91075051E-01 -1.30178454E-01
 -1.82124450E-02  3.64310024E-04  8.81169508E-04 -7.61599743E-03 -1.65314961E-03
 -1.87971440E-02 -1.41367722E-02 -1.60528916E-02  2.46294526E-03 -6.36956069E-02
  1.08551633E-01  1.78991997E-01 -3.59117723E-02  1.05906228E+00 -9.52982049E-04
 -4.06731240E-01 -5.42713841E-02 -2.21610681E-02  3.87019087E-03  2.89211132E-04
  6.56410177E-04  1.31068043E-02  2.80936164E-03  6.05424720E-02 -4.62751273E-03
  4.53974945E-02  1.25199857E-02  2.57484451E-01  2.37538237E-02 -1.17346102E-01
 -2.07146597E-02 -7.23190270E-01 -4.09283722E-04 -6.24028304E-03 -3.57832698E-02
  2.36902052E-03 -2.53950793E-03  4.36150917E-04  8.87416649E-04  6.84599395E-03
 -4.10194118E-03  7.60822966E-02 -4.74298880E-03  2.53678022E-02 -1.68189711E-02
  3.06243012E-01 -1.05811621E-03 -8.55569918E-02  2.68084513E-02 -8.61666424E-01
  2.24580701E-04  3.54116130E-03  4.34457674E-02  1.92365702E-03  1.66049745E-03
  2.22573056E-03  4.45377054E-03 -7.93853401E-04  1.12865239E-02 -4.03118483E-06
 -6.87844304E-02  4.70591832E-04 -6.40534394E-02  3.70351423E-03  7.24012009E-01
 -2.71324763E-01  9.72504153E-01 -1.00996219E-02  2.31152019E-01 -7.41834567E-03
 -5.38794867E-02  1.43682683E-01 -3.62041316E-01 -7.74612789E-03 -2.48612528E-01
 -1.12268479E-01 -2.16299475E-01 -9.04897707E-02 -1.86964024E-01  1.55747747E-02
  2.98229484E-01  1.78129983E-01  4.06890711E-01  1.54387054E-01  2.24479503E-02
 -4.01119596E-03 -2.06857888E-01 -7.96443634E-02 -1.72869894E-01 -1.23666680E-01
  1.59135590E-01 -1.55255817E-03 -4.68790141E-03  1.19032698E-02 -1.32684154E-01
 -5.44496630E-04  8.90414936E-02  2.99698365E-02  2.36005429E-01 -2.53397074E-04
 -5.75212242E-01 -6.24066956E-01 -6.70819397E-01 -2.13127990E-04  1.08645948E-02
  5.77444990E-03 -2.27162086E-02  6.73084971E-02 -1.84201430E-02 -2.84740219E-02
 -5.49976878E-02  5.48186357E-02 -4.50802145E-02  4.68675353E-04  3.76638468E-01
  1.26294978E-01 -1.12720958E-01  4.13392581E-04 -1.97523184E-01 -1.31958205E-01
  3.01100265E-01  9.78834989E-03 -1.50586122E-02 -7.94522819E-04  1.88440288E-03
  1.56643360E-03  1.11617104E-02  2.03391254E-02  3.81799207E-02 -9.48809264E-02
 -2.82432651E-02  1.10418552E-05 -2.55077712E-01 -2.46927346E-01 -3.30888778E-02
  9.68329129E-05  5.39363392E-02  5.82522755E-01  1.50347925E-01 -7.47741470E-03
  7.31898929E-03  1.29168720E-03  7.80120211E-04 -1.37891279E-02 -3.04185371E-03
  4.44892467E-04  9.79773250E-04 -8.96626225E-04 -7.08674315E-04  3.48166660E-02
 -1.33105144E-02  6.70350798E-04 -3.22740063E-03  1.03125016E-03  8.49855422E-02
 -4.01182784E-02 -2.94999243E-02  5.41586059E-01  2.68773121E-02  1.85482559E-01
  3.36814002E-01  1.99501088E-02 -2.97053374E-02 -5.92274855E-02  4.93106181E-01
 -3.77563105E-02  2.04810164E-01 -1.65779371E-02  3.98423397E-02 -4.05844413E-04
 -1.54563036E-02  1.31702845E-03  2.50514615E-02  7.56028860E-03  2.41228834E-02
  5.72790243E-02 -4.88720731E-01  3.18367440E-02 -2.23870122E-01  6.01206173E-03
  5.27946587E-02 -2.60778177E-04 -1.01543188E-03  1.54006257E-03 -7.86360613E-03
  3.50842961E-02  1.70428099E-02 -4.91006447E-03  6.16859575E-03  2.79549918E-02
 -2.15971245E-02 -7.62984570E-02  8.79183268E-03 -2.48139096E-01 -5.22339430E-04
 -3.76127420E-01  7.79616897E-01  5.31624438E-03  6.62076905E-03 -2.43690025E-03
 -4.87539666E-03  1.25666081E-04 -2.72007044E-03 -7.70195459E-02  3.72742521E-02
 -1.95266439E-03 -8.32864638E-03 -1.36662397E-01 -6.37081312E-02  1.12152416E-02
  3.23008167E-02 -1.04751211E-01 -1.00949549E-03  4.19852276E-02 -9.75510449E-02
 -9.20972679E-04  9.92541571E-04 -6.22704135E-04 -1.39584274E-03 -2.74117031E-03
 -1.88264970E-03  3.53227068E-02  1.32379847E-02 -6.34181725E-03 -1.94221445E-03
  4.71138748E-02 -3.49956189E-02  2.00947878E-02 -1.11493137E-02  1.92082661E-01
 -2.54384443E-04 -6.89179458E-02 -3.74660454E-02 -1.76922367E-03 -5.30455261E-04
 -2.69336121E-03 -7.57446422E-03 -1.32948311E-02  5.57959595E-03 -6.76262848E-03
  2.04396782E-01  1.75343344E-01  1.11011648E-02  7.03110169E-03 -2.10149509E+00
  3.02989849E-01 -2.15995535E-01 -8.28755080E-02 -1.51138677E-01 -1.10995377E-02
 -1.23527969E-02  9.38239338E-02 -5.60690722E-02 -1.73653913E-02  2.95156275E-01
  8.36869333E-02  8.23297341E-03 -3.73448208E-03 -5.05227748E-02 -1.85669105E-02
  1.55071365E-01  9.05288627E-03  9.19399618E-02  1.68076076E-02  3.27244599E-03
 -3.88892023E-02  3.92150071E-01  8.49781372E-02  1.60792246E-01 -2.66782237E-02
  3.31366745E-03  3.38741544E-02  8.71880052E-02 -4.36048986E-02 -1.01465544E-02
 -7.00527750E-03 -8.77399194E-01  1.57247035E-01  4.17733934E-02 -8.79910201E-03
 -1.42658876E+00  2.48363363E+00  1.18003163E-01  5.30534619E-02  7.65507528E-03
  1.18419806E-01  1.26266751E-01  3.64830363E-01 -5.71405937E-02  6.07176572E-02
  1.24694476E-01  5.77373436E-02 -2.06527181E-03 -6.01552742E-03 -1.05975209E+00
  1.90257876E-01  2.36811231E-02 -6.64592565E-03  2.48818282E+00 -3.25399599E-01
 -9.80720117E-01 -3.18873349E-02  3.95057728E-03  1.43399109E-02 -5.89205858E-03
  2.94460261E-02  2.39483010E-02  7.09541119E-02  1.45258666E-01  5.41982273E-02
 -7.82177867E-03  1.71780081E-02 -1.23121460E+00  1.91402267E-01 -3.70765937E-02
  3.08276859E-02  2.96319517E+00 -1.68573490E-01  1.12796833E+00  5.67687039E-03
  6.16678721E-05 -8.07382209E-03 -2.09694723E-02  2.82276195E-02 -2.81971294E-02
  3.66677766E-04  4.92678203E-04 -6.08205132E-03  3.52035559E-03  4.03466791E-02
  1.92372122E-02  4.82429492E-02  7.11765117E-03  6.28172942E-04 -3.66987831E-01
 -6.08914912E-03  3.39764668E-02  3.53652245E-01  2.50191198E-02  2.82859779E-02
  1.10476977E-01  8.43195116E-02  2.99066755E-02 -6.33029172E-02  2.85984785E-01
 -8.10213942E-03  3.83673916E-01 -1.67635624E-01  4.38687061E-02 -2.94544841E-02
  1.65913045E-01 -1.47782365E-02  5.19163296E-02 -1.82484010E-04  6.31362400E-02
  6.11911849E-02 -2.43176777E-01  5.46813550E-02 -3.48775311E-01  1.48045126E-01
  7.31139848E-02  8.31675524E-03  2.02096455E-02 -7.07053247E-03  1.04385130E-02
  3.39887587E-02 -1.86209906E-01  1.89985011E-02  6.04673737E-03  3.96097112E-02
 -3.49589736E-01  4.71839441E-01  1.92451620E-02 -2.93575860E-01 -1.81666375E-03
 -5.72483060E-01 -5.36232150E-01  9.88773063E-02 -2.94634187E-02  1.21603388E-02
  2.48309119E-02  1.17203755E-02  3.10421782E-03  2.26555765E-02 -2.10059677E-01
  4.15244141E-02  1.03552863E-02  1.85363080E-02  4.99182092E-01 -6.13025066E-02
 -2.07271456E-01  1.49145792E-01 -5.07049029E-04 -6.64406524E-02  2.12003770E-02
  4.09139063E-03  7.72282798E-03  1.25344970E-02  2.58327256E-02  1.42834674E-02
  2.90724479E-03 -7.80586445E-02 -2.26077884E-01  4.54191595E-02  7.32986799E-03
 -1.43294796E-01  5.89959402E-01 -2.73626951E-02  2.10155358E-01 -8.53996845E-03
 -1.42410542E-03  3.12750910E-02  9.57700640E-02  3.93347543E-03 -8.83944440E-03
  4.38876526E-04  1.21688150E-03  1.75534029E-03 -4.25323529E-04 -1.24104140E-02
 -1.72441795E-02 -7.30997195E-03 -6.23499902E-03  1.00821652E-02  9.66057459E-02
 -4.07607937E-03 -5.29086068E-02 -2.64114547E-01 -2.24653243E-02 -4.60904947E-02
 -1.12792003E-01 -1.45210513E-02  2.53810722E-02  3.46021935E-02 -2.02922138E-01
  3.64712560E-03 -3.08495120E-02 -4.58101434E-01 -2.89925363E-01 -2.54771556E-03
 -2.82728320E-02 -1.44309406E-02 -5.84931401E-03 -3.74411007E-02  6.43058924E-01
 -3.59723415E-02  1.97389716E-01 -8.11583839E-03  1.52052425E-02  5.09625802E-01
 -2.41416303E-01 -1.55089604E-03 -3.79027826E-03  1.61540388E-03  7.51018505E-03
 -1.31808095E-02  3.55651465E-02 -6.80369992E-03  4.22592808E-02 -5.65112681E-03
  7.09945978E-02 -9.05904382E-02  2.08422637E-01  1.55445706E-01 -8.05649600E-03
  6.89385520E-02  1.21136482E-01 -2.02065555E-02 -3.88342200E-02 -5.87985676E-03
 -1.21416289E-02 -3.79534005E-03  4.15326323E-03  2.82533870E-03  1.09473831E-01
 -1.28171747E-02  1.85019568E-02  1.60240552E-02 -3.31479011E-01 -1.87135889E-02
  8.47062028E-02 -9.96201232E-02  4.68677565E-04  1.18181005E-02 -1.27248521E-02
 -2.39598925E-03 -9.11906684E-04  9.69806916E-04  2.06832446E-03 -6.27259358E-04
  3.83180270E-03  2.14027436E-02 -2.17445014E-02 -3.58663909E-03  1.69185848E-02
  4.39727357E-02  1.03971082E-01  4.34340915E-02 -8.32930194E-03 -5.06203119E-02
 -1.14393298E-03 -9.54613743E-03 -1.34971450E-02  2.06626257E-04  4.55931499E-04
 -5.32304363E-03 -1.23605330E-02  5.72655649E-03  4.03162069E-02  8.73088125E-03
  1.04955700E-01 -5.74579375E-02  4.99323119E-02  1.90644348E-02  2.66075257E-03
  9.33909859E-02  1.59489503E+00  2.80322021E-01  6.42411042E-01  9.38057043E-02
  5.74524539E-02  1.93652325E-01  1.39094485E-01  7.49691969E-02 -4.70162160E-01
 -6.03148856E-03  2.51514951E-02 -3.27788730E-01 -1.73126974E-01 -1.56736304E-01
  1.14844591E+00  4.15329275E-02 -2.16976061E-01 -1.80194518E-01 -4.01211191E-02
  1.85239462E-01 -9.44052388E-01  8.21170714E-02  1.38847896E-01 -2.58988976E-01
 -1.27334257E-02  2.01352754E-03  6.16331487E-03  1.54204599E-02 -4.98012705E-03
  4.45229821E-03 -3.23804782E-02  1.44461252E-01 -2.94341471E-01 -4.17929067E-03
 -8.25113895E-01  1.24523192E-01 -1.86805732E+00 -6.11309088E-02  2.54355689E-01
  3.70859854E-02 -5.24001448E-03  4.30673815E-02  2.30673866E-01  3.62771633E-02
  7.43213293E-02  3.73727376E-04 -1.84353220E-02  2.35911397E-03 -6.78896580E-01
  6.18059495E-02 -1.23275319E-01  5.77621216E-03  2.31157871E+00  1.83502184E-01
 -5.94636090E-01  1.18442840E-04 -4.69436222E-03  6.15098632E-03  4.48529740E-03
  2.37550883E-02 -1.05917372E-02 -1.67841100E-02 -3.43600820E-02  6.39741041E-03
 -5.10177589E-03  2.21577347E-03  2.96772331E-01  4.36609423E-03 -3.46724787E-02
  4.68806027E-03 -1.02757417E+00 -1.81576937E-01 -9.32204915E-02  4.12187190E-03
  2.58555478E-02  5.60979282E-03 -4.36136780E-03 -1.22826014E-02  1.39568790E-02
  1.75917795E-03  4.53107500E-03 -1.56330984E-04 -1.13521890E-02  3.44119869E-02
 -4.74751779E-02  8.48691978E-03 -1.00123557E-02  5.20711452E-02  7.69778852E-02
 -4.36838752E-02 -4.81756124E-01  1.04972200E+00 -3.67907071E-02  3.51149111E-01
  6.22988268E-01  2.44780171E-02  3.14123107E-02 -2.59906096E-01  1.20493970E+00
 -1.24760644E-01 -2.40727791E-01 -2.76540823E-02 -2.72189972E-01 -2.34485826E-03
 -1.61979461E-01 -6.63995363E-02  6.58810046E-02  5.63230074E-02 -2.46699131E-01
  2.22133025E-01 -9.91155360E-01  1.47828257E-01  1.77240655E-01  2.19007696E-01
 -3.05181589E-01 -1.14904549E-04 -8.55916107E-04 -2.26471440E-04  3.06257544E-02
  2.05223945E-02  1.25202569E-02 -2.74382174E-02  1.27920883E-01 -1.00802718E-02
  1.20854427E-01 -3.35249522E-02  8.06523657E-01 -2.55967658E-01 -4.07946657E-02
  8.14274408E-02 -1.95659626E-01 -1.18538843E-02 -1.41558299E-01 -1.31351580E-02
 -2.71988615E-02  1.29903044E-04  1.56531863E-02  1.66323206E-02  2.53656576E-01
 -1.39795993E-02  6.46530881E-02  2.60200310E-02 -8.84153582E-01 -9.78886721E-02
  1.83515044E-01  7.51636676E-02  3.31016444E-03  2.27470922E-03  3.66709873E-02
 -1.07695270E-02  7.85983506E-04  7.94944160E-03  1.66069453E-02  1.59098223E-03
  1.43732098E-02 -7.58609224E-03 -1.59122276E-01  1.02458149E-02  5.54026848E-02
 -6.21310937E-03  6.21115338E-01  1.08230722E-01  6.79891861E-02 -1.97081951E-02
 -7.68227297E-03  3.77110263E-02  7.55194715E-03  6.28008475E-03 -4.96247786E-03
 -8.93674134E-03 -2.21494736E-02  2.54724117E-02 -7.16281058E-03  5.99365097E-03
  2.36792566E-01 -1.17614937E-01 -7.14137959E-03  1.06667553E-02 -2.00189173E-01
  4.10011919E-01 -1.74741870E-01  1.09699002E-01 -1.56438308E-01  2.90154723E-02
  1.24792374E-01 -4.71252019E-01 -5.36682769E-01 -6.17450649E-02  3.93022381E-01
 -1.03207816E-01  1.71596336E-02 -6.43601934E-02 -7.19179842E-02  2.97604427E-01
 -1.00692266E+00  2.79005391E-01 -2.52333568E-01  6.15456454E-03  2.78299506E-03
  1.87140541E-02  7.38330516E-02 -3.62271898E-02  5.93704271E-04  2.36539618E-02
 -4.60276885E-03 -1.12709233E-02 -1.83216677E-02  1.98011497E-03 -2.11777500E-01
  2.84419568E-03  7.59356657E-02  2.03755239E-01 -2.39933512E-01  9.60642840E-04
 -3.95223992E-01  5.86032252E-02 -1.42273092E+00 -3.95089317E-02  1.52627881E-01
 -2.68348013E-02 -7.11685994E-02 -8.65923433E-02  4.80536728E-01  2.79445134E-02
  5.91747048E-02 -1.15963994E-02 -8.00483263E-02  5.36027672E-03 -5.77545568E-01
 -2.90197538E-02 -2.41068538E-01  7.52267425E-03  1.98994749E+00  3.58764439E-01
 -3.09621209E-01  1.37880463E-02  1.01746286E-02 -5.91275795E-03  7.24493168E-03
  3.29671087E-02 -1.13776727E-02  2.14122241E-03  2.03648502E-03 -3.30734289E-02
 -7.77258862E-02 -7.10883068E-03  7.30608760E-02 -6.90121852E-02 -2.46008687E-01
 -1.13848375E-02 -9.41506387E-01 -1.96265860E-01  9.34821220E-02 -4.16201865E-03
  1.76543175E-02  7.57640989E-03  9.26646131E-03 -3.41761526E-03  3.23097769E-02
 -6.45493017E-03 -1.35917369E-02  7.53509574E-02 -3.14106530E-03  1.85147648E-03
  1.26263875E-01 -2.37280387E-01  4.29060899E-02  4.27806983E-03  5.72089751E-01
  6.01789841E-01 -5.73615350E-01 -6.05725181E-02  2.29063017E-01 -3.25749352E-02
 -3.22897401E-02 -4.18893471E-01  2.39814332E-01  1.51823128E-01 -4.66303288E-01
  1.28499925E-01 -2.48898846E-01  7.79316600E-02  3.38567166E-02  7.54378710E-03
 -2.76158942E-01 -2.30708350E-01 -1.10009114E-01  5.93936692E-02 -1.02828274E-02
  1.18954348E-01 -3.39385925E-01  1.11836777E-01 -2.87874646E-01  4.48280332E-02
  3.25494900E-02 -1.85632797E-02 -2.91678311E-02  5.74162259E-02  9.19779979E-02
 -1.00821656E-03  1.77487026E-01  4.29049352E-01  3.01446023E-01  2.11897111E-03
 -1.53356547E+00  2.49360700E-02  1.81905107E+00 -1.97176836E-03  3.47744366E-01
 -3.44913543E-02  1.25518619E-02 -1.45860774E-01 -3.69896353E-01  1.92796931E-03
  2.71321468E-03 -2.60826812E-02  3.87724114E-02 -2.89544074E-03  2.74178900E-02
 -5.43120441E-02  1.36490568E-01 -5.97982779E-03 -6.44449372E-01 -7.15556103E-02
 -1.09833881E-01  3.85777792E-03  2.96674817E-02 -1.93148910E-03 -4.31083489E-03
 -3.47654556E-03 -3.28096799E-02  5.52427881E-02  1.13824750E-01 -2.71244182E-02
  5.71009128E-02 -1.20298466E-03 -1.02946835E+00 -3.67524174E-02  2.11200932E-01
 -3.08028565E-03  3.07758656E+00  6.48004336E-01  6.38820984E-01  2.42362933E-03
  1.67634278E-02 -3.35926860E-03  2.26769379E-03  3.40275441E-02  1.36156701E-02
 -4.77297186E-03 -1.33298379E-02 -4.81926198E-02 -3.92268750E-02 -2.31753651E-04
  1.00172104E-01 -3.32056415E-02  2.65667086E-01  7.96931432E-03  4.37787160E-01
 -3.47300994E-01 -9.87967944E-02 -1.95581324E-02  1.89216785E-01 -7.97879707E-03
 -2.54610667E-02 -3.73495570E-02  1.03039968E-01  1.12018520E-01 -2.08319462E-01
  2.20327302E-01 -1.17095611E-01  3.06469029E-01  2.23211518E-02 -3.01748181E-02
  7.90170055E-02 -2.20454080E-01  5.33075192E-01  3.38928696E-01  2.13703448E-02
  9.92491637E-02 -1.77357059E-01  2.00754178E-01 -7.06565117E-02  3.32207586E-01
 -2.25271364E-02  4.57271858E-04 -2.41953991E-04  2.22093633E-02  1.99061545E-01
 -1.41399410E-03  7.72645413E-02  9.35224095E-02 -5.48039887E-01 -1.38972965E-04
 -1.16807371E+00 -3.81326937E-01 -2.19638265E+00  5.61909308E-03  2.33740936E-01
 -2.19297553E-03  1.01021887E-02  4.33979723E-02 -7.58421152E-03  6.37374998E-02
  1.29710251E-01 -1.46495730E-02  2.23244773E-02 -1.73094822E-03 -1.14383189E+00
 -5.13537011E-02 -2.94246343E-02 -2.30431058E-03  3.11537708E+00  7.40439904E-01
 -7.87484866E-01 -2.82294473E-03  2.73832568E-02  9.74496707E-04 -2.48688996E-03
 -4.43671108E-02  2.85400996E-02 -5.54028907E-02 -1.12766441E-01  6.71071938E-03
  4.46094597E-02  2.25289300E-03  9.51042223E-01  6.93484390E-02  8.29551194E-02
  3.29388811E-03 -2.21776000E+00 -5.36592704E-01 -4.78625045E-01 -3.64919526E-03
 -3.71947998E-03 -1.55805086E-03 -1.06474477E-03  4.27081304E-02  2.51804283E-02
  2.56179958E-02  4.23871685E-02  2.74543556E-01 -3.42573933E-03  3.23128592E-02
 -8.74450694E-03  2.15563282E-01 -1.24020470E-02 -5.95359791E-02 -2.05259784E+00
  1.72197721E+00  2.40722828E-01  1.52095280E-01  1.25925558E-01 -6.00047779E-02
 -5.59692123E-02 -2.00455542E-01  3.03273768E-02  1.91716578E-01 -2.49401324E-01
 -2.00749600E-03 -4.47779150E-01  2.71694225E-02 -1.59580916E-01  1.17734444E-01
 -2.73191940E-02 -4.14679144E-02 -3.17012104E-01 -9.58045352E-02 -9.17080294E-02
  1.16913428E-01 -1.12756063E-01 -1.77079548E-01 -3.79155088E-01  5.38245502E-02
  4.20025882E-02 -1.12265985E-02 -1.35607925E-02  2.32619169E-01  3.00751874E-02
 -1.71989594E-02 -2.17566360E-01 -1.10839944E-01 -1.45148424E-01  1.06668714E-02
  3.21185806E+00  1.38177100E+00 -9.28942977E-01 -5.50729417E-02 -7.34537165E-01
 -7.24290844E-02  1.41304144E-02  4.75340526E-01 -1.89881452E-02  1.68510459E-02
  3.41432739E-02  2.79460962E-02  1.88993326E-02 -6.06486570E-03 -2.68183436E-01
  2.30789020E-02  6.97061535E-02 -1.07030736E-02  3.95820870E-01 -6.76256823E-03
 -2.23286520E-02  1.65243553E-02 -3.55569900E-02 -2.58560298E-03 -8.97785110E-03
 -2.78156342E-02  8.26869405E-02 -1.81210704E-02 -3.73601783E-02  3.37973224E-02
 -1.58335496E-02 -1.89187204E-03  3.68667210E-01  4.59529246E-02 -8.44975655E-02
 -4.90220082E-03 -1.41822314E+00 -4.20721942E-01 -3.26236614E-01  1.21446621E-02
 -3.85724975E-02 -4.54215869E-03  4.71790760E-03 -2.24675820E-02 -5.41752528E-02
 -4.41926595E-03 -7.96283256E-03 -4.20933944E-02  1.73622774E-03  2.37197279E-01
  2.37803072E-02 -2.51985095E-02 -6.84712448E-03 -3.87599356E-01  1.84090996E-01
 -2.14040498E-01  5.64736584E-03  9.24347593E-01 -8.63797813E-02 -4.93210431E-01
 -3.56543419E-01 -7.44188055E-03  1.80071548E-03  2.69389526E-01 -4.85720545E-01
  6.12032411E-01 -1.65874464E-01 -1.55107890E-01 -3.68406394E-01  1.86768328E-03
 -1.66331477E-02  6.34610150E-02  4.55945186E-02  2.38649910E-02 -5.73825695E-01
 -3.24356892E-01  5.69866609E-01 -6.36087853E-01  3.06403510E-01  1.01126170E-01
 -3.49566507E-01  1.88358576E-04 -2.46093289E-04 -5.73686088E-02  2.52962880E-03
 -1.46696126E-01  1.86372651E-02  7.58708943E-03  1.11657158E-02  7.85530401E-02
 -2.46291686E-01 -1.70600571E-01  7.79582214E-02 -3.31678905E-01  4.14596943E-02
 -5.34748644E-01  9.31709499E-02 -1.25406805E-01  2.67237003E-03 -4.37752731E-04
 -9.19052035E-04 -9.11586726E-03  4.00180872E-03 -3.78359096E-02  1.53202449E-02
 -1.81561211E-02  1.86170485E-02 -6.82419836E-02 -9.22929978E-02 -1.04200222E-02
  4.97690583E-03  8.57071210E-02  9.87681688E-04 -2.29058765E-02 -7.06159509E-02
  9.29164078E-03 -1.66268198E-02  2.22671865E-03  4.55869599E-03 -1.05909512E-02
 -1.34162465E-03 -1.05595277E-02 -3.51699948E-02 -2.31842450E-02 -1.02834017E-02
 -2.87069837E-02  6.15875139E-02  2.88476477E-02  2.10369858E-02  4.05568642E-02
  1.93329825E-03 -3.16894584E-02  4.43526840E-02  1.15000325E-02  1.26137290E-02
 -7.70729423E-03 -2.19330707E-02 -4.03416197E-02  9.15427733E-02 -2.17260174E-02
  2.92734216E-01  3.13128767E-03 -2.04313023E-01  3.14377477E-02 -1.00894451E+00
  2.75746088E-01  5.70101312E-01 -3.97605198E-02 -1.16942770E-01  4.94252438E-02
  5.48039359E-02 -2.69234487E-01 -2.54587484E-02  3.10886417E-02  6.83571530E-02
 -1.25445576E-01  1.06401585E-01 -2.90221010E-01 -7.48593385E-02  1.11545750E-01
 -9.18433625E-02  3.26746623E-01  2.35564954E-01 -8.43359809E-02  3.19948742E-02
  1.21108589E-01 -8.17493795E-02  4.65900940E-03  5.71855292E-02 -3.07369891E-01
  9.36790049E-02 -2.21620016E-02 -3.29154737E-02 -2.75643339E-01  1.45161128E-01
  1.71160944E-02 -9.89670584E-02  7.31204892E-02 -1.32468829E-01 -8.72034035E-03
  1.44636424E+00  1.70942844E-01 -5.27201182E-01  1.59186658E-02 -7.23771434E-01
  3.56022858E-02 -8.22143798E-03 -6.50414616E-01 -2.13243517E-01  4.01404285E-02
  8.08535022E-02 -6.99201787E-02  9.95865966E-02  3.78873454E-03 -5.57664793E-01
 -2.00037378E-01  3.86191048E-01  6.78102836E-03  1.17019283E-01  3.45261854E-02
 -1.82473890E-01 -7.10391817E-03 -4.38347557E-02  1.80713996E-03  6.64192745E-03
  4.76917995E-02 -4.69029710E-02  6.06362395E-03  1.18710267E-02 -9.80526343E-02
 -1.44408011E-02  4.10217280E-04 -2.37277944E-03 -2.21228997E-01 -1.75833834E-01
  1.67741274E-03 -9.49948874E-01 -1.44579246E-01 -1.43524234E-01  1.19444279E-03
 -4.52843806E-02  2.10978972E-03 -3.43194025E-03  1.43991223E-01  6.60766136E-02
  5.20047446E-04 -3.18974471E-03 -1.22755060E-02 -2.93515103E-01 -7.20878566E-03
  1.19114944E-01  2.97247188E-02  5.07111972E-01  1.09665854E-02 -5.72505461E-01
  1.84768022E-01 -6.90591208E-01 -6.89810253E-03  4.18636700E-01  1.36546392E-02
 -7.57271682E-02  6.48347682E-02  2.79589981E-01  3.02320143E-01 -4.87791210E-01
  4.21617469E-01  6.83983310E-02  3.26421386E-01  1.16378869E-01 -3.86972115E-01
  8.07270936E-01 -6.87728870E-01  1.11421239E-01  2.43710898E-01 -1.50865722E-02
  2.89469225E-01 -4.51832855E-01  3.77797155E-01  5.07809893E-02  3.56938987E-01
 -9.81724919E-02 -1.26568969E-02 -1.81924072E-02 -1.17031873E-01 -2.11288293E-01
  6.93384419E-03 -5.12714163E-02  7.88076461E-02  1.62660717E-01 -3.84582104E-03
  6.77262316E-01  1.91460234E-01  3.99882795E-01  3.38664499E-03 -4.07865301E-01
  9.80633680E-03  5.92331171E-03 -1.65857473E-01  6.25002431E-01 -1.17865412E-02
 -2.40932066E-02 -6.97464887E-02 -4.10222854E-02 -8.69590810E-04  2.15713422E-01
 -9.07254697E-02 -6.05015981E-02 -9.39397544E-04 -6.03904063E-01 -9.43752341E-02
  1.67868510E-01  2.67727519E-03 -3.69147493E-02  8.63643832E-04 -4.26223957E-04
  1.42312802E-01 -8.08751035E-02  3.91011035E-02  7.89744924E-02 -1.85388940E-02
 -9.68031609E-02  2.41820053E-03 -5.80654173E-01 -1.28665469E-01 -3.17940639E-01
  3.84545062E-03  4.35348744E-01  1.33620789E-01  2.14773343E-01 -4.35163803E-03
 -1.67026039E-02 -3.53051503E-05 -3.81783341E-03 -6.35820699E-02 -1.64112975E-02
 -4.16866033E-02 -7.30144669E-02  1.16016627E-01 -3.01533569E-02 -2.89512953E-03
  4.02240724E-01 -1.83819403E-01  2.29262284E-01  3.01816292E-02 -1.45898604E-01
  4.08881394E-01  6.22849359E-02 -5.75503117E-03 -2.55776196E-01  1.82226997E-02
 -1.33981385E-02  6.07259530E-01  9.09690419E-03 -3.26406580E-01  4.25777211E-01
 -1.61441059E-01 -4.06537349E-01  2.13201470E-01 -2.85192038E-01 -5.41345792E-01
  9.26460193E-01 -4.04918963E-01 -3.91166569E-01 -1.34601622E-01 -1.57353275E-02
 -3.00036964E-01  3.77784780E-01 -1.32234453E-01 -4.14779991E-01  1.94191828E-01
  3.19333727E-01  3.75209112E-03  1.09952275E-02 -1.81060770E-01  8.75345728E-03
  9.00121522E-03 -6.23879888E-02  5.42631739E-03 -8.09141299E-02 -5.37490902E-03
  1.34055678E-05 -3.45961475E-01 -6.68940391E-01 -9.07275213E-03  8.59941203E-02
  4.21215680E-03  5.62953234E-04 -4.79384097E-01  9.39084807E-02  2.32745113E-02
  4.81175970E-02 -4.19606711E-02 -1.38012071E-03 -1.23987247E-03 -4.15129796E-01
 -1.25138640E-01  5.61036547E-02 -1.67456301E-03  8.09457763E-01  3.28006481E-01
 -1.74938922E-01  7.51356254E-03  4.15777467E-02 -6.66104302E-04  1.78694007E-03
  2.10129759E-02 -4.04444853E-02  2.05983802E-03  4.39518559E-03 -3.33018671E-02
 -9.36620730E-03 -9.47382523E-04 -7.39734350E-04 -1.02783681E-01 -7.92956263E-02
 -1.49634053E-03 -5.24145094E-01  1.70728321E-02 -6.90591041E-02  8.76409709E-03
  3.17109937E-02 -1.39450751E-03 -2.42098641E-03  4.03147483E-02  6.73215824E-02
 -5.74086917E-04 -1.38672644E-03  7.17531447E-03 -3.05703501E-03 -1.55009385E-01
  1.66259070E-02  5.16628122E-04 -4.86168504E-03  4.71390912E-01 -7.80391658E-02
  3.91414029E-02  3.40665121E-03 -1.72966457E-01  1.09575128E-01 -6.95359816E-01
  7.58928100E-01  5.87864108E-02  3.72921749E-03 -2.42629473E-01  5.75051593E-01
 -3.17473901E-01 -4.46531054E-01  2.00728651E-01  2.42102088E-01 -2.41770193E-02
  4.94200853E-02 -2.62399469E-02 -2.61753345E-02 -3.63264281E-02  5.69178119E-01
  2.56127324E-01 -5.97744031E-01  3.33818277E-01  4.69816499E-01 -1.83095376E-01
  2.11311312E-01 -2.64975364E-04 -6.94519377E-05 -1.00006370E-02 -3.89152739E-04
 -4.05799073E-01 -1.29220093E-02  4.90397172E-03 -2.98484936E-04  3.03262478E-01
  1.04870260E-01  3.64818359E-02 -9.55335143E-03 -1.73605066E-01 -3.04798732E-02
 -3.11129399E-01 -2.82221361E-02 -9.37741216E-03  9.03099668E-03  3.71797089E-04
  7.52734061E-04 -1.11423876E-03  1.23433967E-03 -1.48213096E-02 -4.35581744E-03
 -3.46604565E-03  5.37495550E-03 -2.44452976E-02 -1.35824016E-02 -7.17694301E-03
  2.60806282E-03  1.09876958E-02 -3.34837654E-03 -3.99824602E-02 -6.57049898E-02
  3.98962120E-03 -4.39126704E-03  6.26614265E-04  1.27210800E-03 -6.06400617E-04
 -2.63512859E-03 -2.18070081E-02 -7.38293467E-03 -4.91624383E-03 -9.83099692E-03
 -3.26184971E-02 -2.40718816E-02 -7.91604837E-03 -1.86711985E-03  4.22689454E-03
 -2.61208967E-03 -1.62321198E-02  1.07380859E-01  5.06335241E-04  1.77193523E-03
  7.88703721E-04  1.05166841E-03 -3.99509237E-02  7.85661195E-02  5.20818513E-03
 -3.77082892E-02  7.05071560E-03 -3.99578089E-01  2.39155968E-03  4.65916223E-01
 -1.66100962E-01  2.71912660E-01  4.29811461E-03 -6.70094534E-01  1.64907326E-02
  1.31341094E-01 -2.22210370E-01  7.33035069E-01 -7.64965158E-02  1.85439060E-01
 -9.65491670E-02 -3.76286686E-01 -3.80142568E-01 -2.12418670E-01  2.78494424E-01
 -6.03139560E-01  2.38964808E-01  5.46033454E-01 -9.98598393E-02  2.52160074E-02
 -5.84710060E-02  1.28365971E-01 -7.90267646E-02 -3.19339181E-01 -4.12841881E-01
  1.88965925E-01  1.36597980E-03  6.23940268E-04  3.41408086E-02 -1.36859759E-02
  5.97896568E-03  6.75533819E-02 -3.74060893E-02 -6.87923186E-02 -5.19352924E-03
 -5.51052640E-01 -2.49877748E-01 -6.52520616E-01  1.73556458E-03  1.58344440E-01
  2.94957512E-03 -7.94363930E-03  6.09166353E-02  5.37716171E-01 -4.81661295E-03
 -1.01594195E-02 -3.82842966E-02 -5.51310516E-02  7.53795194E-04  2.79946242E-02
  1.70284282E-02 -1.86105987E-01  5.99414548E-04  6.48614482E-01  1.37405205E-01
 -6.59143585E-02  5.01364454E-04 -1.12520325E-02 -1.57010843E-03  4.83120627E-03
  1.37810628E-01 -8.03504555E-02  9.34454135E-04  2.45018172E-03  3.97686194E-02
 -4.08384613E-02 -6.30913526E-04  1.37602695E-02 -4.43808271E-03 -1.24350444E-01
 -1.56669187E-04 -4.67120274E-01 -5.67222421E-02 -3.58891273E-02 -3.20659568E-04
  5.19505126E-02  3.24557147E-03  2.20878529E-03 -1.76025963E-01 -7.33644745E-02
 -4.41293334E-02 -8.42703898E-02  4.55931727E-01  3.30674239E-02  1.07881607E-02
  5.78905714E-01 -2.33882888E-01 -2.10156550E-01 -3.73952862E-02 -1.09919312E+00
  5.43990236E-01 -9.81992131E-02 -9.16279847E-03  3.46482181E-01 -5.51270848E-03
  8.78553893E-03 -7.79605283E-01  5.70620094E-02 -6.42083553E-01  7.32449005E-01
 -2.78886854E-01  3.06692856E-01  9.63545915E-02 -1.38258893E-01 -4.63301421E-01
  2.50636256E-01 -1.62806448E-01  4.41942664E-01 -3.31166789E-01 -1.24004662E-02
 -6.69995983E-01  7.95610647E-01 -3.00915722E-01  2.95996933E-01  6.53408324E-02
  1.36780943E-01 -9.52228507E-03 -1.85149096E-02  1.62618363E-01 -1.13179813E-02
  3.68519510E-03  1.14019054E-02  4.04115360E-02  1.71235513E-03 -2.75236035E-03
  1.22272016E+00  5.23632136E-01  1.95736444E-02  8.60227164E-03 -1.96444714E-01
  3.57767489E-03 -8.19926160E-04  1.85484357E-01  3.78979960E-02 -4.56484817E-04
 -1.19726111E-03  2.62305629E-03 -7.34543738E-03  6.30153909E-04  1.78238121E-02
  5.01274985E-03 -1.06850746E-02  4.53122819E-04 -1.46261242E-01 -2.99350398E-02
  8.95044411E-02 -1.29410853E-03 -1.34318021E-02 -1.08564756E-03  1.26931155E-03
 -1.53466907E-02  1.96390133E-02  1.92584929E-03  3.66440052E-03  7.46683124E-03
 -4.37971194E-03  4.55939569E-04 -1.76100874E-02  3.77785265E-03 -2.15338259E-02
  5.04074760E-04 -1.16079124E-01 -4.39981168E-02 -6.10414355E-02 -1.83167779E-03
 -1.46559383E-02 -1.67233381E-04 -5.72137322E-04 -4.78554821E-02 -4.13765018E-02
  1.13305279E-04  3.16007751E-04  3.24482516E-03 -1.70428041E-03  7.13512471E-02
 -3.69424717E-03 -1.16078279E-02 -1.92414892E-01  1.43694980E+00 -2.04010709E-02
 -2.83631740E-04 -1.39084633E-01  8.05900620E-01  3.23469977E-02  4.62157021E-01
  2.26750014E-01  4.62578618E-03 -6.33874490E-02 -7.59268270E-01  2.28142918E+00
 -3.62433637E-01 -3.69925684E-01 -7.36914182E-01  7.64792517E-01  5.99327977E-02
 -1.83577221E-01  2.50791396E-02  2.91782570E-02 -4.59955404E-02 -4.46131232E-01
  6.94561729E-01 -2.08917388E+00  3.35607591E-01  3.46151801E-01  6.66311690E-01
  7.53529128E-01  2.19096263E-04  2.52513893E-04  4.84931938E-03 -3.52580129E-03
  5.53323642E-02 -1.13024340E-03 -6.35344820E-03  7.47636653E-03 -7.86054148E-02
  3.88918797E-02  2.10786918E-02  7.53385991E-02 -2.37128178E-01  1.70516586E-03
 -9.40147580E-02  5.27954134E-02  7.56997115E-03  8.49410733E-03 -1.02737957E-03
 -2.05564211E-03  1.88324619E-03 -1.77796783E-03 -3.03190684E-02  1.81120205E-02
  8.91641663E-04 -3.81111705E-03 -1.68108168E-02 -5.55645565E-02 -6.20560453E-03
  1.74575791E-02  6.68633615E-02  5.50513963E-03  3.61933538E-02 -2.75134909E-02
 -4.12033226E-03 -3.61670197E-03 -1.93417367E-04 -3.71059179E-04  3.10650166E-03
 -1.28962129E-03  2.04057010E-02  2.56009559E-03  5.04051284E-03 -8.36406313E-04
  9.19364254E-03  2.08742657E-02 -1.34383758E-02  4.47901173E-03  7.40686269E-03
 -4.99393123E-03  5.76395640E-03 -4.68095039E-02 -1.26325826E-03 -3.48195802E-03
  1.62263567E-03  2.69849919E-03  7.64112195E-02  3.58691925E-01  6.91941704E-02
 -2.76400896E-02 -1.08628817E-02  1.27688370E+00  1.51709546E-01 -2.65131416E-01
  1.19702747E-01  1.26860891E+00  1.50543884E-01  4.46193398E-01  7.86246202E-02
  8.94041162E-03  1.40333665E-01  6.17680774E-01  2.49265495E-01 -1.11795818E+00
  2.64796901E-02  2.81383743E-01  2.81680326E-02 -6.59651648E-01 -5.69184777E-01
  2.46796725E+00 -4.78991097E-02 -4.20225071E-01  1.31976860E+00  6.54007158E-02
  2.87658332E-01 -1.37994223E+00  1.12241198E-02  3.45065187E-01  3.65606886E-02
  8.17370217E-01  4.05083876E-03  5.38515870E-03  2.54660400E-02  4.61114479E-02
  1.31731820E-02 -4.82818307E-02 -5.80076533E-02 -6.63316562E-02 -1.76107397E-02
  6.15100618E-01  2.78134463E-01 -2.60331927E-01 -2.02614880E-02  7.14453785E-03
 -6.21503795E-03 -2.34006795E-03  8.50382518E-02 -5.39894578E-02 -1.00957691E-02
 -2.07256639E-02  2.59553407E-02  1.09166217E-02  1.61049092E-03  1.88056295E-01
  6.52134942E-02 -1.59175891E-02  1.69567112E-03 -2.73516142E-01 -2.55967788E-01
  5.51839992E-02 -1.96636320E-03 -8.02478365E-02  8.25258241E-03  5.63236018E-03
  4.01877503E-02 -3.74038469E-03 -6.83820966E-03 -1.32796817E-02  3.72135349E-02
  9.25999919E-03 -1.07459011E-03  1.09669242E-01  2.22740999E-02  2.12859559E-02
 -6.39066357E-05 -2.65303839E-01 -8.76420110E-02 -1.00147396E-01  2.88713037E-03
  3.53129738E-02  6.43654124E-03 -1.16008614E-03 -5.54010841E-02  5.75280523E-03
 -1.49697538E-04 -7.46116217E-04 -4.57583611E-03 -9.67147193E-02  8.26643012E-01
  9.02146458E-03  5.93834808E-03 -2.63125930E-02 -2.34654079E-01  1.27395090E-02
  4.41030685E-03 -9.78839409E-02  5.76079392E-01  5.79796224E-02  3.14393875E-01
  8.68595689E-01  3.18317315E-02 -7.61181449E-02  4.68263243E-01  1.11447004E-01
  5.29357016E-01 -2.92263705E-01 -2.24241416E-01  5.63048613E-01  4.77824613E-03
 -1.05944262E-01 -1.76347952E-02  1.77154022E-02 -9.88898163E-02  2.75654555E-01
 -4.47822676E-01 -4.95309706E-02 -5.08624080E-01  2.55506061E-01  1.34816610E-01
  5.25458186E-01 -6.57479095E-05  1.15345661E-04 -1.18271043E-02 -5.92368997E-03
  2.78873922E-01 -5.01093758E-03  1.32224449E-02  8.04293340E-03 -3.05138598E-01
 -2.42577419E-03 -1.01324994E-02 -2.17817882E-02  1.96965802E-01 -9.78663987E-03
  5.31970086E-02 -3.94505785E-02 -7.07429109E-03 -1.08227178E-02  1.15505309E-03
  2.40495208E-03  9.85729548E-04  1.74289958E-03  2.31712786E-02 -2.12073639E-02
 -4.43615848E-03  6.88178900E-03  2.14021403E-02  3.37104508E-02  1.40445038E-02
 -1.02932503E-02 -4.14978369E-02  2.48594060E-03 -8.39161901E-03  9.87367208E-02
 -7.94535058E-03  6.08017820E-03 -2.27155348E-04 -5.92759188E-04 -6.00787313E-03
  4.28515892E-05  1.02823127E-02  6.86797643E-03 -1.10305232E-03  2.42758239E-03
  2.12989531E-02 -2.24367867E-02 -1.52942949E-03  1.18382239E-04 -7.05487287E-02
 -6.54276800E-03  4.99479245E-02 -2.56889625E-02  1.63607607E-02  6.99193413E-03
  1.85539689E-03  7.81581194E-03 -1.80712252E-02 -7.45078441E-01 -7.04345575E-02
 -9.50264492E-02 -2.97869533E-02  6.62075160E-01  9.81568331E-02 -1.68481337E-01
 -6.77392629E-02 -4.50351902E-02 -1.20464468E-04 -6.13783314E-01  8.07321307E-03
  6.22240529E-02 -3.81855597E-01 -2.44023517E-01  2.74018550E-01 -1.93882600E-01
  2.56877642E-01 -2.09320729E-02 -4.23019603E-01 -5.17177530E-02 -8.30314559E-01
  9.04282502E-01 -5.86672534E-01  1.36904564E-01 -1.96361076E-01 -3.63785846E-02
  3.43824847E-01 -3.27012091E-01  3.12381754E-01 -2.24686985E-02 -3.84351748E-01
  1.82267865E-02  2.57378268E-03  1.73048510E-03  1.29347727E-01 -3.97069375E-02
 -3.27652754E-02  3.39606985E-02 -1.62672601E-01  4.28666786E-02  3.48039216E-02
  1.44285389E-01  1.39739408E-01 -5.01797161E-01 -3.75648525E-02  1.11440651E-01
 -7.86936929E-03 -2.79781637E-03  6.41864471E-02 -1.39738953E-01 -3.32045910E-04
  4.97132875E-04  6.76081334E-02  1.67334896E-03 -1.11764628E-03 -2.11551654E-02
  3.96200066E-02  1.62384624E-02 -2.09475260E-03  2.40461523E-01 -7.80079866E-02
 -1.05279873E-02  7.66732727E-03  2.15532570E-02  3.97097959E-04 -2.94051309E-03
 -1.20812062E-01  9.70220191E-02 -1.35177813E-02 -2.76486042E-02  6.80543077E-03
  2.38022684E-02 -3.68079279E-03  2.41326282E-01  4.76547527E-02  6.93611104E-02
 -3.20144331E-03 -4.74576218E-01 -1.49090153E-01 -1.35632726E-01  9.76064014E-03
  2.49493458E-02  4.02416611E-03  9.84420655E-03  5.08999900E-02  5.45308606E-02
 -1.87395667E-03 -5.17925330E-03  9.20837096E-03  4.91515738E-04  1.50473179E-01
  3.66242678E-02  1.31673444E-02 -1.90370338E-02  4.60374986E-02  1.17639484E-01
 -3.57363526E-03 -2.08033686E-02  2.13888346E-01  1.91933283E-02  5.44357627E-01
  7.14571868E-02  6.32552061E-05 -6.25023307E-03  1.73127623E-01  4.77351387E-02
  3.09521500E-02  1.20003194E-01 -1.59532751E-01  1.54542976E-01  3.92848324E-02
 -8.64909923E-02  3.94291153E-03  1.82122263E-02 -1.80170608E-02 -9.77722224E-02
 -1.67091027E-01 -1.28322003E-01 -3.52968454E-02 -1.28649181E-01  1.69954060E-01
  2.19754759E-01 -1.43652089E-04 -3.46619476E-04 -1.33981048E-02  1.09556389E-03
 -1.05408703E+00  6.10522410E-03  1.75630292E-02 -8.47237930E-04  1.17210977E+00
 -6.59077925E-02 -3.91153306E-02  1.93161511E-02 -6.50649611E-01  2.37598804E-03
  2.36063406E-01 -1.36395650E-02  1.94139431E-05  7.59276617E-04  5.52010986E-05
  6.67177908E-05 -3.02273749E-03 -7.38356672E-05 -5.48525324E-02 -6.34961255E-04
 -1.22183496E-03 -1.59980543E-03 -4.59545554E-02  2.09100244E-03  1.04419551E-02
 -2.47867289E-03  1.49364726E-01 -1.84489922E-03  2.32220533E-01 -1.41026334E-01
  3.66419682E-03 -8.31213165E-04  3.48289968E-04  6.72670542E-04 -2.61330121E-03
  3.56885166E-04 -6.25617426E-02 -6.56679739E-03 -1.13130880E-03  1.20428910E-03
 -4.71447974E-02  2.50187971E-02  1.29916945E-02  4.82847982E-03  1.57417864E-01
 -3.41028339E-03  2.55537897E-01  1.29720612E-01  2.89753296E-03 -1.73981658E-03
 -3.87090451E-02 -1.19085048E-01  5.39977862E-01 -1.08957670E-01 -2.11959478E-02
  7.78994002E-01  1.47616494E-01  7.86609441E-02  1.47461251E-02  3.82945005E+00
 -1.26646930E-01 -1.64517549E-01 -2.10964379E-02  3.55061558E-02 -2.04058540E-02
 -6.96896071E-03 -2.80196994E-01 -3.13403792E-02  4.93184377E-01 -1.71684700E+00
  1.07873134E-02  2.44208986E-01  3.66118871E-01 -5.57714419E-01  4.51158632E-01
 -1.77653640E+00 -1.12360215E-01  2.32063943E-01 -7.58337389E-01 -4.76935088E-02
  5.12353201E-01 -1.70804611E+00  3.00380248E-02  2.33446344E-01  2.83894101E-01
  5.76506174E-01  1.39078971E-02  1.50525744E-02 -5.66447100E-01  5.99388503E-02
  3.19593782E-02  1.04138682E-01  6.45141276E-01 -6.95043817E-02 -3.94151151E-02
 -1.69857823E+00 -1.11267153E+00  4.55782054E-01  3.08432559E-02  2.93335489E-01
 -8.15851716E-03  6.64609704E-04  1.88275162E-01 -5.86587556E-02 -1.82636322E-02
 -3.73873476E-02  5.09185947E-04 -1.77943981E-02  3.33783758E-03  3.00956285E-01
  6.31492789E-02 -1.46688373E-01  2.21522401E-03 -2.46359348E-01  6.04891877E-02
  3.38485790E-02 -1.20144289E-02 -9.79692693E-02  7.10093406E-04  1.20521449E-03
  5.38816963E-02  2.84881652E-02 -8.68139764E-03 -1.78186190E-02 -8.93976266E-03
  4.44437155E-02  3.79234195E-03  1.06007414E-01  5.31820786E-02  1.47408710E-01
  2.26972279E-03  4.26886795E-01  2.23708829E-01  8.65739266E-03 -1.28830579E-02
 -4.11648771E-02 -1.15389112E-03 -1.73511842E-03  3.37785181E-02 -5.07185344E-02
  1.52648498E-04  3.23195225E-04  1.69209284E-03 -9.65382824E-04  3.72731804E-03
 -2.20955711E-03 -2.76098149E-03 -1.11519204E-03  1.99163831E-02 -2.25700720E-03
  1.87828907E-04 -8.83174317E-04  5.08557617E-02  1.33764486E-03  1.70513097E-02
  5.70161205E-03  8.52065338E-04 -9.66026167E-04  1.18278416E-03  2.59612806E-02
  3.75108781E-02 -7.98946706E-03 -1.91867608E-02  1.49610161E-02  1.51288561E-04
  3.53183133E-03 -3.41539331E-03  6.75603467E-04  1.32822988E-03 -1.43357388E-02
 -1.63129389E-03 -2.40329738E-02 -3.41558743E-02  6.35222319E-03  1.54996705E-02
  1.49548387E-02  5.31972865E-05  8.22737468E-05 -2.41005584E-03 -8.88400890E-03
  3.47241841E-03 -3.66095205E-04  2.93942968E-03  1.49408329E-02 -4.71077336E-03
  6.57942045E-04 -1.35817586E-03 -9.47410915E-03 -5.99962532E-03  4.35318654E-04
 -2.02378878E-03  1.40748417E-02  3.17306992E-04 -2.66485304E-03  1.16875490E-04
  2.64454712E-04 -4.65160882E-04 -1.03001635E-03  1.23877044E-02 -1.98998784E-03
 -1.05787180E-03  2.25822299E-03 -1.22293882E-03  1.17856873E-03  7.95728928E-04
  2.71701422E-03 -1.35351517E-02  2.32322622E-02  5.96537549E-01  3.81201223E-01
 -4.03872330E-03 -1.33042156E-02 -2.00970481E-04 -4.33406448E-04  5.02459419E-04
 -9.74442893E-04 -1.30546860E-02  3.28587021E-03  1.58379277E-03  2.86286283E-03
  1.16146994E-03 -2.00398771E-03 -4.62033684E-04  2.60429445E-03  1.66258777E-02
 -2.31247052E-02 -5.57843536E-01  4.31584562E-01  1.71622672E-03 -1.36583130E-02
  1.34184188E-02  2.86398792E-02  1.48928622E-01  1.06471005E-02 -1.18432934E-03
 -1.94145328E-01 -2.38634327E-01  1.19251472E-01  3.03667643E-03 -2.39934678E-01
  2.71547290E-02  4.15512182E-01 -1.12790449E-03  1.70851831E-02  1.61881955E-03
 -6.12288579E-03  4.02529758E-02  6.60672519E-02  2.81713691E-02 -2.27347771E-02
 -1.65184272E-02 -5.43246011E-03 -9.51605371E-02 -1.06818981E-02 -8.33840563E-02
  5.33139222E-01  3.68346686E-02 -4.30216386E-02  2.23686541E-01  1.79437136E-02
  2.17941999E-02  8.94821814E-03 -8.44797276E-03 -7.85004071E-03 -1.03950408E-01
 -7.39665124E-03  4.26383272E-03  6.71683683E-03 -1.64910937E-01 -1.98423165E-01
 -1.38082418E-03 -3.14570863E-02  1.85208403E-01  3.24783135E-01  1.88610706E-03
  4.16989365E-02 -8.03971489E-02 -4.52620934E-01 -1.63826392E-03  2.44760364E-02
  5.37657667E-04 -9.33123291E-04  3.45460824E-02 -8.14734673E-02  2.68045380E-03
  6.07059297E-03 -4.64099670E-03 -2.53027904E-02  1.42706300E-04 -5.49397709E-02
 -1.62794734E-02  3.68758724E-02  1.71291667E-04  1.67407731E-01  2.81109452E-02
  3.91573559E-02 -2.46797614E-04  6.26456385E-01 -2.37289546E-02 -1.54400489E-02
 -1.48617166E-01 -3.42553525E-01 -8.11183819E-03 -1.70113752E-02  1.40293059E-02
 -1.89590330E-02 -5.18728737E-04  1.36245333E-01  4.20731710E-02  8.62979076E-02
 -4.91490968E-04 -1.98944303E-01 -1.50058921E-02  3.57041026E-02  1.53986954E-03
 -5.41264673E-01  1.93120459E-02 -1.67782048E-02  6.54999090E-02 -3.24288358E-01
 -5.59297012E-02 -1.20368267E-01 -5.57327205E-01  2.30375218E-03 -4.88559029E-03
  8.14976634E-01  9.79697682E-01  3.49382352E-02  5.95909536E-03  1.07222227E+00
  2.23077041E-02  7.45679759E-02  1.13284928E-03  5.15235632E-02 -1.05757904E-02
 -4.22110195E-03 -1.23258396E-01  9.66170613E-03  8.20704556E-02 -8.52903630E-01
 -2.79881840E-02  8.67112962E-02  2.65551832E-01 -4.14983874E-01  3.87766925E-02
 -7.09294742E-01 -2.62916651E-02  4.97431028E-02 -4.64704832E-01 -2.58533131E-02
  9.14708187E-02 -8.47072224E-01 -2.62360304E-02  8.35899995E-02  2.04698926E-01
  4.36348102E-01 -1.15433004E-02 -2.04435707E-02  5.35735036E-01 -4.46839583E-02
  1.26724660E-02  1.11834991E-01 -5.91004345E-01  6.28907502E-02 -1.72099813E-02
  5.20918022E-02  2.86368426E-01  4.68798657E-02  1.10594375E-02  4.95125867E-02
 -5.98332156E-03  8.96206136E-05 -9.20973617E-02 -2.41576383E-02  1.48969802E-03
  3.38870447E-03  2.55646298E-03  2.83733974E-03  1.17711174E-03 -2.87980264E-03
 -5.02172100E-03  6.86478747E-02  8.80795580E-04 -1.78970844E-01 -1.24077612E-01
  6.18827813E-02 -4.12744986E-03 -3.33467130E-01  7.31828828E-03 -8.80677122E-04
  1.49669450E-01  8.31697130E-02  2.86373686E-03  6.01934539E-03  1.27454832E-03
  2.45147692E-04  1.26094388E-03 -3.73035692E-02 -8.96829389E-03 -4.50765361E-02
  7.44648235E-04 -6.57170190E-03 -7.50178600E-02 -2.34068957E-02 -4.18828163E-03
 -5.36534239E-01  1.24680999E-02 -5.30793884E-03  1.53150675E-01 -2.54194485E-01
 -5.21108396E-04 -1.21944626E-03 -4.79836711E-03  2.92652012E-03 -2.94003391E-02
  6.26482780E-03  1.05101297E-02 -3.79566593E-03 -2.04597128E-01  2.13409829E-02
 -7.07171615E-03  4.63753064E-03 -1.88102625E-01 -2.24293490E-02 -3.71026451E-01
 -1.25608664E-01 -1.01081139E-02 -1.40644761E-04 -7.04853372E-02 -2.52491187E-01
  2.86804048E-03 -4.84682627E-03  1.56804282E-01 -1.48237534E-01 -4.52183948E-03
 -2.76860120E-02  3.34143359E-03  1.40595804E-03 -2.43080870E-02  7.54058784E-02
  7.89679527E-02  2.47440602E-01 -5.17531792E-03  1.52957780E-02 -1.31582961E-01
 -1.76550291E-01 -1.18370177E-04 -3.04453848E-05  1.48003035E-02 -4.41545315E-04
  3.12251973E-01 -1.75995581E-03 -1.92593481E-02  3.19402042E-04 -4.27666776E-01
 -5.59512780E-03  6.49457650E-03  9.72903582E-04  2.07919259E-01 -9.55332496E-03
 -2.21895839E-01  7.80468968E-03 -5.57282055E-03 -2.15134310E-04  3.20304391E-04
  6.49250955E-04  6.70118257E-04  1.41915655E-03 -3.19177591E-03 -4.76690927E-03
 -1.16154790E-03  4.01342749E-03  5.94226880E-03 -7.47055708E-04 -3.27777762E-03
 -1.76560234E-03 -2.09876601E-02  2.19302882E-02  6.60822589E-01  1.37857567E-01
 -1.22828692E-02 -1.09274002E-02  3.71966495E-04  7.51069816E-04  4.82306918E-04
 -1.40697370E-03 -2.31376820E-03 -5.79716877E-03 -1.64924132E-03 -3.74105570E-03
  5.33605648E-03  2.49465573E-03 -2.06188364E-03  2.36518036E-03 -2.21430347E-02
  1.98675560E-02  6.34784743E-01 -2.10792956E-01 -1.07933924E-02  1.00821230E-02
 -5.22216854E-02 -1.24231680E-01 -2.76939271E-01  7.38291236E-02  1.12125304E-02
  7.41253867E-01  8.08862795E-01 -1.08990603E-01 -8.76536142E-03  2.68388009E+00
 -2.97965291E-01  1.26119596E-01  2.51021759E-02  6.95023509E-02  5.01939586E-03
  2.97555546E-03 -1.22101130E-01 -5.77683475E-02  2.93380021E-01 -1.37660988E+00
 -4.10188738E-02  2.19477088E-01  3.27112399E-01 -4.53967216E-01  2.11427654E-01
 -1.31337554E+00  4.76123462E-02  1.64250087E-01 -6.09184492E-01 -3.54628422E-02
  2.88636752E-01 -1.38268924E+00 -5.72476604E-02  2.10036089E-01  2.70971529E-01
  5.00056894E-01 -6.98320439E-03 -9.19584488E-03  5.80074286E-01  2.17300291E-02
 -2.95279263E-03  5.68889784E-02 -7.28560646E-01 -5.43571045E-02  3.18185665E-03
 -8.07538293E-01 -8.23312622E-02  2.20462804E-01  2.91251603E-03 -1.90437760E-01
  6.84581944E-03 -2.46336178E-04 -1.71376355E-01 -3.74169488E-02  5.22352122E-03
  1.06576071E-02  1.20344305E-02  4.38344668E-02  2.76853327E-03 -5.84033236E-02
 -1.83660037E-02  1.11266683E-01  7.20376485E-04 -1.78171673E-01 -1.22881111E-01
 -2.88712661E-02 -5.46464279E-03  3.96007624E-01 -2.38045893E-02 -9.26346740E-03
 -2.55571612E-01 -2.47029053E-01  1.11576417E-02  2.26078556E-02 -5.79245485E-04
 -2.62363843E-02  2.60592677E-03 -1.75769171E-01 -4.60347542E-02 -1.10733088E-01
  7.14736236E-04  1.92796735E-01 -2.50839251E-02  5.08059692E-02 -5.38577319E-03
  3.37365848E-01 -2.07015822E-02  1.05610252E-02 -2.66505545E-01  1.44455504E-01
 -1.88205835E-03 -4.49648459E-03 -6.57288757E-03 -5.99327283E-02  1.45643750E-03
  2.90490956E-02  2.69885297E-02  2.33977050E-01 -3.66963915E-03  1.30029281E-01
 -1.52779442E-02 -3.10251294E-02 -2.16045754E-04  7.91196402E-02 -1.47939566E-03
 -1.59587400E-02  4.64542478E-02  2.15980752E-01 -4.16175789E-02 -1.17357062E-01
  4.82633320E-02 -4.73366429E-03  4.86022130E-02 -9.30283848E-02  1.12170841E-01
  5.23536513E-02 -8.50075162E-02  2.43270751E-02  1.20398624E-01  8.82291515E-03
 -3.08657692E-02 -1.01483998E-01  3.85110948E-02 -5.12421453E-03  2.64104590E-02
  8.34277778E-02 -1.12467400E-03 -1.66770957E-03 -4.26728995E-02 -1.17529482E+00
  8.51537020E-05  1.38611897E-02  5.93248780E-02  1.57494999E+00 -1.93050701E-04
 -7.72231680E-02 -4.99687020E-02 -3.03887197E-01  3.11175180E-04 -1.02413948E-02
  4.68325470E-04 -8.60205640E-04 -4.34667389E-02 -3.80130386E-01  2.66060475E-02
  5.49892608E-02 -9.28490926E-03  2.92506934E-02 -3.69243234E-04 -4.22887357E-01
 -1.39975174E-01  3.36355424E-01  6.38100996E-04 -1.99649570E-03  8.02901430E-03
  2.48288837E-02  1.44940568E-03 -2.29575085E-01  1.20938499E-03 -3.20091505E-03
 -1.03932636E-01 -1.71938715E-01 -2.50286403E-02 -5.19590702E-02  4.95460733E-04
  2.56211475E-02  5.59795139E-04  3.98349765E-01  1.66760364E-01  3.14942431E-01
 -6.28905577E-04  3.23606814E-02  1.81988644E-02  3.03258553E-02 -1.61159529E-03
  2.47022275E-01 -1.86449128E-03 -1.80043469E-03  7.19485016E-02 -1.84848203E-01
 -6.57284900E-04 -1.54017508E-03 -6.03405593E-05  1.46232854E-03 -3.25489165E-02
  8.77766224E-03  5.60791071E-03 -5.50321077E-03  8.34551376E-02  4.84957709E-02
 -4.69138762E-03  2.82581857E-04 -1.67563551E-02  1.41808111E-03  2.71381785E-02
  1.88324258E-02 -1.75378768E-03 -6.07640859E-03  1.85858903E-02  1.54565001E-02
 -4.57614194E-02  4.17683997E-03 -1.52089149E-02  1.27655071E-02  2.27984085E-03
 -2.07162992E-02 -3.62884377E-03  3.15730922E-03 -9.47691600E-03 -4.72906938E-03
 -6.14908465E-03 -5.79363193E-02  4.84158569E-02  1.66851518E-03  1.98042437E-02
  2.57941747E-02  5.61403691E-05  7.55183597E-05  1.90652568E-03  2.24217066E-03
 -4.97083788E-01  8.58218739E-04 -1.96774183E-03 -6.75042494E-03  8.08105034E-01
 -2.29875888E-02 -8.20447236E-03  2.76584503E-04 -1.08840072E-01  3.09435481E-03
 -3.16475144E-01  1.40155998E-02 -3.86263885E-03 -4.30906216E-03  1.24412315E-04
  2.58835916E-04  7.59293837E-05  1.55320543E-04 -1.51432892E-02 -2.65068686E-03
 -2.42947553E-04  1.01157321E-03  1.76109345E-02  6.46495453E-03  1.96688480E-03
 -3.31703257E-03 -1.78698092E-01 -3.62874655E-04 -1.13754621E-01  7.06021523E-01
  6.53133993E-04 -2.61156338E-03 -7.65944782E-06 -1.44102436E-05 -4.47184812E-04
  3.92799431E-04 -1.78276399E-02  3.50052586E-04  1.98324840E-04 -3.47402694E-04
  1.81205949E-02  1.43662294E-04 -2.23599158E-03 -4.48938150E-04 -1.75162558E-01
  2.80933831E-03 -1.75493533E-01 -6.92057632E-01 -7.30434612E-03 -6.55952766E-03
 -6.85057905E-03 -1.67312653E-02 -8.96304390E-03 -1.20173386E-01  1.48432761E-02
  8.70893981E-02  1.03293824E-01  6.28885809E-01 -3.62680047E-02  6.30988986E-01
 -6.81590549E-02  1.50462763E-01  4.43220469E-03  2.92186641E-01 -1.14895157E-02
 -6.12532997E-02  1.43270436E-01  6.75068583E-01 -9.33114461E-02 -5.61165895E-01
  3.40565449E-03  7.65154127E-02  1.37354399E-01 -3.47971360E-01  3.31340269E-01
  2.16477184E-01 -6.39570921E-03 -7.82208589E-03  3.73962287E-01  3.25841239E-02
 -5.67219473E-02 -4.77205015E-01 -8.64030464E-03  5.74911785E-02  4.49520895E-02
  3.05852923E-01  2.99284083E-04  9.44457293E-04  4.00570387E-02 -3.12650653E-01
 -5.82302551E-03  3.78626314E-04 -2.59494794E-02  8.02989624E-01  9.13542947E-03
 -2.70204354E-01 -8.33310554E-02  4.24510196E-01  5.72583017E-04 -1.71455958E-02
 -2.74984516E-03 -3.58756169E-02  3.49131523E-02  4.64590034E-01 -1.10020333E-02
 -2.23032855E-02 -2.27914809E-02 -1.66052633E-03  2.81886468E-03  2.51216272E-01
  3.19485685E-02 -1.67303503E-02 -1.03939374E-03 -7.20317823E-01 -3.44241815E-01
  2.32250230E-01  9.49704373E-03  1.84057057E-01  2.30967819E-02 -3.37017073E-02
 -4.24402763E-01  4.78973010E-01  1.31501878E-02  2.64890120E-02  1.11306391E-02
 -1.21317286E-02 -1.82018779E-03 -2.86281797E-01 -3.67983479E-02 -3.12042887E-02
  1.36846253E-03  7.85350650E-01  3.95677599E-01  2.36221652E-01 -1.56484276E-02
 -1.51921354E-01 -3.26776361E-02 -4.27831904E-02  4.75646592E-01  4.64958147E-01
 -4.49472241E-04 -1.08409269E-03  2.24248944E-03  3.01534075E-02 -2.45957149E-01
  5.16259950E-03  5.73977418E-04 -5.25481614E-02  6.27165479E-01  4.60063858E-02
 -4.75977264E-03  1.70045854E-02 -4.65574855E-02  3.02372237E-02  1.50633322E-01
  9.17751411E-02  1.43428419E-02  2.19214875E-02  5.72799724E-02  2.65083140E-01
 -1.11346751E-01 -7.97880840E-02 -1.39762642E-01  1.23121968E-01  1.68400535E-02
 -1.26045663E-02  9.88865145E-03  5.96422044E-03  1.26180454E-02 -9.26826011E-02
 -5.98917005E-02 -3.10612006E-01  1.00809783E-01  8.15279980E-02  1.39738586E-01
  1.60886544E-01  3.13782706E-04  5.69040770E-04  2.52446012E-03 -3.12856480E-02
  3.02634073E-02 -3.72272360E-03 -2.87911352E-04  6.95890733E-02 -4.55023499E-02
 -2.43875379E-02 -5.52395208E-03  3.48870451E-02  3.61552445E-03  5.67639446E-05
 -3.91141674E-03  6.37206221E-01  2.33296773E-03  3.34488647E-02 -5.79264544E-04
 -1.16460152E-03 -2.88982672E-03 -3.67532093E-04 -6.02288729E-02  1.44461150E-02
  1.77276829E-03  1.42118375E-03  3.10154689E-02 -5.16561224E-02 -2.47935217E-02
  1.53240097E-02 -2.05372094E-01  1.10980761E-02 -3.80269649E-01  6.33122391E-01
 -3.13970250E-02  3.15113502E-02  7.93806254E-04  1.60106926E-03  2.50507164E-03
 -3.50813804E-04  6.20545684E-02 -1.90666638E-02 -2.11655367E-03 -1.12526653E-04
 -3.20477389E-02  6.46150888E-02  3.03719873E-02  1.99811957E-02  2.05998933E-01
 -1.28585284E-02  4.60846619E-01  5.90364561E-01  3.13071204E-02  3.32163403E-02
 -9.58622772E-03 -2.53645542E-02 -4.10991006E-01 -3.16887155E-02 -8.08011221E-03
  2.07410781E-01  9.49631745E-01  1.13317591E-01  2.53566637E-02  4.11959160E-01
 -5.00325930E-03  5.99820579E-02  9.93490709E-03  1.92234676E-01  2.76352305E-03
 -4.50505837E-04 -3.30947269E-01  5.34808656E-02 -6.71162931E-02 -3.52936520E-01
 -3.22421195E-02  4.26878103E-02  1.21975294E-01 -2.24509584E-01 -7.97675652E-02
 -1.78745503E-01 -3.15497881E-02 -9.02572397E-04 -1.75549044E-01 -1.37786368E-02
 -6.09899485E-02 -3.78913942E-01 -3.07894777E-02  4.64391659E-02  1.00247802E-01
  2.45409598E-01 -6.61382182E-02 -1.11182897E-01 -6.45652609E-02  1.84144453E-02
  3.33720559E-04  8.55407702E-01 -1.01050520E-01 -2.43218656E-02  1.10820537E-03
  1.15533940E+00 -3.30691160E-01  2.80760253E-02  7.92098857E-04 -3.40550581E-01
 -5.20167945E-03  2.73914603E-03  4.08757636E-01 -3.25101705E-02 -1.53289985E-02
 -3.23104660E-02  8.85401220E-04  1.02122358E-01  1.92886448E-04  3.81693427E-01
  2.31279029E-02 -1.31229414E-01  7.96447437E-05 -1.08733786E+00 -7.24526077E-02
  6.15041181E-01 -2.00586022E-03  3.82644811E-01 -2.60301702E-03  3.66026120E-03
  5.93633076E-01  5.74236453E-04 -1.38728564E-02 -2.94176833E-02 -1.57194000E-02
 -9.91229027E-02  8.71674676E-04  3.56709571E-01  3.02560459E-02  1.19274643E-01
 -2.98753741E-04 -1.05782293E+00 -1.08167108E-01 -6.15460518E-01 -3.33450118E-04
  3.76058040E-01  5.38602552E-04  8.86546647E-04  5.99762952E-01 -1.17588895E-01
 -6.56121353E-03 -1.72792737E-02 -3.62289538E-01  2.03715152E-01  5.27052146E-02
  2.03523793E-01  6.98159135E-01 -4.76346193E-01 -1.34567486E-01 -6.71226328E-01
  1.59578585E-01  1.99316317E-01  3.24649604E-02 -9.14965858E-03 -3.48279957E-02
 -2.16819877E-02 -2.36140105E-01 -7.89287902E-02 -8.87674295E-03 -7.32646607E-02
 -3.48266849E-03 -1.78990506E-02  6.09180259E-02 -5.28717478E-02 -1.95484314E-01
 -1.49620236E-01  1.62150268E-01  3.95178284E-02 -2.59678673E-01 -7.80609850E-03
  4.29033612E-02 -6.01957031E-03 -3.75626965E-02 -4.43449325E-02  1.39099004E-02
  8.11707161E-04 -4.63222341E-02 -6.94269334E-02 -3.91574699E-01 -2.99588489E-02
 -4.23934793E-03  4.13408847E-01  5.85051942E-01  7.95761850E-02  7.22867287E-03
  9.38641060E-01  4.61766888E-01 -5.04307600E-02 -7.13699695E-03 -2.94795335E-01
  6.51105170E-03  4.27987585E-03 -4.58324228E-01  7.87324407E-02  4.13182883E-03
  6.97855116E-03 -1.26041365E-01  8.08498870E-02 -9.44317297E-04 -3.15344068E-03
  6.99629528E-02  2.09187884E-02  5.69653298E-04 -3.68559750E-01 -4.34915342E-01
  1.18455325E-01  9.09806444E-04  2.08850344E-01 -2.48234803E-03  5.22045146E-04
 -2.29744702E-01  7.05738275E-01  4.60886445E-03  8.01936928E-03 -1.20334560E-01
 -7.00578342E-02  6.75261408E-04 -2.38555279E-02  6.05037934E-02 -1.96108849E-02
 -4.14501666E-04 -2.93806596E-01 -3.72149691E-01 -4.09110820E-02  3.58776513E-03
  1.79292966E-01  2.08715972E-03  6.33252586E-03 -2.88428334E-01 -5.95219758E-01
 -6.13712230E-04 -1.80937045E-03 -4.29266236E-02 -2.28766982E-02 -1.12763078E+00
  2.26058142E-02  8.85761398E-02  6.80188902E-02  3.26852230E+00 -4.46077534E-02
  1.55027701E-02  2.90451309E-03 -1.26491726E-01  2.38670819E-01  8.74300339E-01
  1.18529516E+00  8.18310609E-02  1.17818725E-02  6.06270319E-01  1.29915434E+00
 -3.02465677E-01 -4.90977209E-01 -7.25556724E-01  8.17182358E-01  4.96291821E-02
  1.19076264E-01 -2.54084424E-02 -4.77649616E-02  1.02889523E-01 -1.90498060E-01
 -6.80675802E-01 -1.47111899E+00  3.38183564E-01  5.24377993E-01  6.57422172E-01
  1.05733893E+00 -1.95154418E-03 -2.13596817E-03 -3.92816725E-02  7.88967869E-03
  1.34617125E-01  5.52700028E-04  8.84397129E-02 -1.81089063E-02 -2.19666317E-01
  4.42736034E-02  3.78285749E-02 -4.96379756E-03  4.18867159E-02 -2.99494575E-02
 -1.60421467E-01 -1.61459358E-01  1.53220708E-03 -1.70710991E-03  3.84019042E-04
  6.47509333E-04 -7.25549925E-03  3.39286069E-03  4.55489240E-02 -6.69041075E-03
  6.64961294E-03 -2.74137513E-03 -2.96455413E-02  2.00005756E-02 -1.40842862E-02
 -1.78745218E-02  4.65458995E-02  3.81391010E-03  1.06534317E-01 -1.15168200E-01
 -2.22297290E-02  1.74659889E-02  4.91934340E-04  8.47700176E-04 -1.06065683E-02
 -3.20324178E-03 -2.91434157E-02 -6.81543437E-03  7.45245857E-03  1.94688153E-04
  1.96599668E-02  6.81762499E-03 -1.74218114E-02  1.22489773E-02 -5.44682750E-02
  6.87762499E-03 -3.96142253E-02 -1.18709736E-01 -2.66338763E-02 -1.99779625E-02
 -1.25643991E-03 -4.69624079E-03 -2.08473332E-01 -1.10463053E+00  3.05854576E-02
  8.43187859E-02  4.55091271E-01  3.23158206E+00 -9.04698241E-02 -3.03079818E-01
  7.32792035E-02 -9.11106649E-02  5.08800453E-03  9.90571511E-01 -3.19897105E-02
 -2.28056125E-01  3.93874418E-01  8.10144149E-01 -4.52583663E-01 -9.25400279E-01
  2.29219465E-01  3.11927413E-01  3.21415982E-01 -7.62019090E-01  6.45349884E-01
  1.54548676E+00 -3.52563984E-01 -5.61726509E-01  1.21884073E+00  8.38952142E-02
 -3.39595024E-01 -6.81523420E-01  1.70209921E-01  2.14109728E-01  1.11734970E-01
  6.29516221E-01 -4.73799769E-03 -3.45501669E-03 -1.51635292E-01  3.19808349E-01
 -3.67985120E-03 -4.31615131E-02  3.60649830E-01 -7.69695718E-01  5.99159719E-03
  1.68231157E-01  1.69523845E-01 -2.59007134E-01 -1.54671971E-03 -1.10565001E-01
  5.75316995E-03  2.96675855E-02  4.07851227E-02 -7.80564231E-02  1.77864503E-03
  3.30821807E-03  2.62047713E-02 -2.75227821E-02 -7.16145406E-03 -8.68291222E-02
  1.21728448E-02 -4.09278263E-02  4.96321048E-03  5.84024451E-01  1.21129454E-01
 -2.97898341E-01 -1.00653023E-02 -5.96032907E-02 -1.34815678E-02  2.06745371E-02
 -7.39806513E-02 -1.24021935E-01  1.84621869E-03  2.90923411E-03 -9.41705905E-02
 -3.59663842E-02  7.30563243E-03  1.82794271E-02  4.58358063E-02 -2.64276938E-02
 -5.06258740E-03 -3.68522158E-01 -2.30744164E-01 -1.05471783E-01  1.01437456E-02
  7.28882747E-02  1.35310617E-02  1.98204716E-02 -1.56988458E-01 -1.99539717E-01
 -2.17316795E-03 -5.14319581E-03 -5.30987109E-02 -1.79472756E-01  1.30949809E-03
  3.84372475E-02  1.40988434E-01  4.76639623E-01 -3.82509575E-03  1.33345704E-01
 -1.86341459E-02 -4.63167696E-02  1.04552392E-03  1.63266661E-01 -2.72694016E-03
 -3.08275379E-02  2.18464686E-02  5.13604680E-02 -5.97035991E-02 -1.99592489E-01
  1.65576464E-02  7.58930575E-02  5.53703621E-02 -1.21679053E-01  1.07875628E-01
  1.20084317E-01 -1.89295480E-02 -9.38560920E-02  1.24700037E-01  7.33190127E-03
 -4.48190810E-02 -1.76123721E-01  1.37900618E-02  6.15137642E-02  2.63118715E-02
  1.11906900E-01 -1.10370613E-03 -1.13459583E-03 -5.83499114E-02 -5.62384391E-01
 -1.69855677E-04  1.33756290E-03  1.80578905E-01  2.05106192E+00  2.43225033E-04
 -4.91915324E-02  1.63054996E-02  5.71139199E-01  2.06900690E-04 -1.58437783E-02
  2.49867976E-04  6.83976437E-03 -4.75567042E-02 -9.09502795E-01  1.03453421E-02
  1.91890599E-02 -5.88627718E-02  3.46733450E-01 -8.76321501E-05  1.50356693E-02
 -6.35107991E-02  4.67803510E-02  6.29043600E-04 -1.50169398E+00 -3.49831603E-01
  8.87199465E-01 -1.75632475E-04  3.26196339E-01 -1.69656104E-03  8.40692816E-04
  5.95310704E-01  3.48871452E-01 -1.10527255E-02 -2.06815810E-02  8.97354004E-02
  3.41743817E-01  8.03915748E-04 -5.61293306E-03  7.82069619E-02  5.08000466E-02
 -1.05658844E-03  1.54091864E+00  4.24890747E-01  8.84064640E-01 -5.91297315E-04
 -3.21558885E-01  1.31295337E-03  3.20426117E-04 -5.50199703E-01  4.64425857E-01
  3.51321799E-03 -1.42597329E-02 -8.62153969E-01  1.77107478E-01  2.54325883E-02
  3.66284021E-01  2.16680176E+00 -5.58699853E-01 -8.48849740E-02 -3.55552000E-01
  3.74110288E-02 -2.34218007E-02 -4.32439990E-03  2.74440860E-01 -2.31742597E-02
 -2.28540943E-03 -9.47050031E-01 -6.65565110E-02 -1.36727800E-01 -2.22810604E-01
  6.76943471E-02 -6.40838725E-02  1.72082501E-01 -2.27302389E-01 -2.90970665E-01
 -6.44665437E-01  1.41056950E-01  9.68295579E-02 -5.87259506E-01 -3.23838387E-02
 -1.13472394E-01 -1.58419495E-01  5.66701208E-02 -9.24879484E-02  1.19712836E-01
  2.05909894E-01  3.72138400E-03  1.45880686E-02 -8.23637403E-01  8.20509233E-03
 -3.49312451E-03 -3.32897704E-01  2.16960898E+00 -5.73951394E-02  5.40017088E-03
 -4.88203669E-01  1.26605115E-01  3.88059063E-03 -4.57971611E-04 -2.52709079E-02
  6.04983468E-03 -3.08634673E-04  1.14142610E+00 -4.04375969E-02 -1.07008678E-02
 -2.11137041E-02  7.82417919E-02 -2.42717368E-01 -1.11683742E-03  8.63856076E-02
  5.00048483E-02 -3.81621892E-02  5.18312064E-04  8.33238295E-01  1.86496481E-01
 -5.48608623E-01 -1.25008329E-03 -1.57192153E-01 -1.84925838E-03  1.34118689E-03
 -2.79780975E-01 -3.18012513E-01 -1.04217711E-02 -2.04740760E-02  1.30455198E-01
  2.08670556E-01 -1.08717496E-03  8.18932896E-02  2.67422942E-02  4.54371568E-02
  5.48169604E-04  8.25787988E-01  2.55178533E-01  5.06970827E-01 -1.35655263E-03
 -1.46437495E-01 -2.16699594E-03 -1.01304258E-03 -1.54976813E-01  3.75439950E-01
 -6.01294871E-05 -1.03279442E-04 -2.45664451E-04 -6.79809287E-03  3.25227369E-02
  4.26629054E-04  1.24543537E-03  1.74832411E-02 -7.86056775E-02  6.17793946E-03
 -1.31072139E-03 -2.55801658E-02  9.52357646E-02  1.14563107E-03 -1.83825516E-02
 -6.37234429E-02  4.31574506E-04  3.70286766E-03 -4.93573030E-02  1.88359383E-02
  7.00892854E-02 -1.19960097E-03  7.90777933E-03 -2.05906051E-02  7.36450327E-03
 -5.77109367E-03 -1.05126161E-02 -4.96087833E-04  4.25762212E-03 -1.97609401E-02
  4.34064591E-02 -2.02534358E-02 -6.02211869E-02  3.55511535E-03  2.86745421E-03
 -1.98568678E-02 -9.78590496E-06 -1.51585792E-05  2.17174958E-04  3.88282281E-04
  1.04550587E-02  3.46722244E-04 -5.72423876E-04 -3.21610714E-03 -2.08148229E-02
 -1.64163669E-03 -4.98154359E-04  1.69119144E-02  1.88449940E-02 -1.86348707E-05
  9.37597925E-03  1.91653324E-01 -8.01742448E-05  1.58463706E-04 -1.02876128E-04
 -1.82705736E-04 -9.17519465E-03 -1.57230501E-03  8.20489056E-01  1.86326055E-03
  1.04370187E-02  1.82004884E-03 -9.34046057E-01 -9.04396742E-03 -4.95534654E-03
 -8.62408531E-04  3.37997741E-01 -5.81528667E-04 -4.69972282E-02  5.39468898E-02
 -3.95779146E-04 -1.13201760E-04  8.86840750E-05  1.57112011E-04  8.92999956E-03
 -2.99043984E-03 -9.60434867E-01 -1.55733040E-03 -1.01608857E-02  3.41843902E-03
  1.09519920E+00  8.28841747E-03  4.86243577E-03 -2.04025473E-03 -4.15559450E-01
  7.24080334E-04  4.80400329E-02  5.21739962E-02  4.21480852E-04 -2.58688810E-04
 -1.97480366E-04 -3.92984908E-04 -7.26078408E-05  1.01855305E-02 -9.95376744E-03
  1.65793861E-03  4.32814690E-03 -2.44583840E-02  1.94369705E-02  2.01181526E-02
  1.03341293E-04 -8.51065041E-03 -2.11743893E-01 -4.28616256E-03  7.47932460E-03
  1.09749006E-02 -4.47795994E-03  6.58438164E-03  1.64507719E-02 -4.83847574E-02
 -3.92445920E-02 -1.75578204E-02  1.18656315E-02  5.02035259E-03  6.77050534E-04
 -3.10455414E-02  2.29816451E-03  6.47059041E-03 -1.08090449E-02  3.05887296E-02
 -9.68188281E-03  4.61993992E-02  3.56306269E-02  1.77037409E-02 -5.28188928E-03
  4.73928047E-04 -1.02576109E-04 -1.76153551E-04  1.96678402E-03 -3.42390469E-03
  1.15595879E-01  6.53706539E-04 -4.20614108E-03  1.66465033E-02 -2.24393016E-01
 -7.50237407E-03  5.50543938E-03 -2.30555134E-02  4.98317573E-01 -8.41222296E-04
  5.43170166E-02 -1.84671918E-02  4.09796547E-03  1.40144756E-02  1.22440859E-04
  1.99771197E-04  8.00491134E-02  1.11345840E-02 -9.58846846E-01 -1.59268252E-03
 -9.26091634E-02 -1.51154479E-02  1.12043706E+00  1.43964395E-02  4.19869818E-02
  1.00377464E-02 -5.91409724E-01  2.63492580E-03 -9.11826295E-03 -9.26910023E-03
  4.99965586E-04  5.43279057E-04 -5.38228256E-05 -8.30637984E-05 -1.01023410E-01
  3.42349494E-02 -8.22432109E-01  5.59616832E-04  1.17080014E-01 -4.13818317E-02
  9.62911177E-01 -8.31376274E-03 -5.32905150E-02  2.18490991E-02 -5.30423291E-01
 -1.46428199E-03 -1.57598851E-02  1.39113171E-03  1.51512771E-03  2.13714663E-03
  1.53393339E-03  2.32823659E-03  2.53325091E-05  9.78800239E-02  2.04978074E-03
 -4.32537744E-03 -6.19377807E-03 -2.49258277E-01 -4.76893012E-03 -2.17073313E-01
  3.03753855E-02 -1.27131704E-01  2.47605698E-02 -7.00565615E-02 -8.36163559E-04
  1.13576672E-02 -2.45812226E-02  5.50991818E-02 -1.18083761E-03  1.71833685E-01
 -7.39769375E-03 -4.40153624E-02 -4.43991617E-03  5.62844617E-02 -2.41952402E-02
 -1.43214310E-01  4.39701841E-02  5.22765174E-02 -5.14320653E-02 -7.61419479E-03
  2.09642323E-03  1.40276285E-01 -1.47379811E-02 -4.03370462E-02  1.13468437E-02
 -5.46090638E-02 -6.04101182E-04 -9.07014989E-04  1.68575671E-03 -3.27535592E-02
 -1.21995850E-02 -1.05872579E-02 -5.29525707E-03  1.61870513E-01  2.37319048E-02
  7.01493707E-02  9.86094756E-02 -2.29779194E-01 -5.36134149E-02 -6.92661516E-03
 -5.61655433E-03  4.01016363E-03  3.18288388E-02  1.31202409E-01  1.83839929E-03
  3.12518686E-03  8.01736684E-01  9.76531707E-02  1.10547528E-01 -2.82340630E-02
 -9.31795469E-01 -1.32108183E-01 -1.29337081E-01  1.52803395E-01  4.29578298E-01
  8.44156470E-02  6.72075211E-02  1.88926838E-02  6.64774669E-04  1.50101261E-03
  6.04275553E-03  8.58086722E-03 -8.03800105E-04 -1.29705424E-03 -9.16196418E-01
  3.07907266E-01  7.70032603E-02  9.73109840E-03  1.06394707E+00 -3.72926919E-01
 -9.04484836E-02 -9.60234100E-02 -4.93548134E-01  2.03280584E-01  5.21459656E-02
 -1.81695129E-02  2.10735070E-03  5.08647938E-04  9.83443459E-03  1.78896923E-02
  8.01824289E-04  2.77062167E-03  3.55428095E-02 -9.38366178E-03  2.81094359E-04
 -5.27892197E-02 -4.50402387E-02  6.12577172E-02  7.50946128E-03 -5.11747656E-01
  1.13077587E-01  1.93314742E-01  2.81702096E-02 -2.64462632E-02  1.05470383E-03
  2.52139093E-04  4.57200443E-02 -4.00275299E-03  2.92424401E-02 -6.49536165E-02
  6.56554457E-03  3.28703439E-02 -3.03578759E-02 -8.27747756E-03 -2.51432318E-02
  1.68783459E-01  9.73867514E-02 -2.38701335E-02  5.81937567E-02  1.15697410E-03
  3.77577939E-02 -9.13785891E-02 -7.20863191E-03  4.07374212E-02 -2.66679842E-02
  1.02442802E-02 -5.85664965E-03 -1.02634522E-02  1.57412248E-01  1.52833427E-03
  5.15772788E-04  1.16357925E-02 -4.39389458E-01 -5.62926972E-03 -7.54824739E-04
  2.92417138E-01  8.30214461E-01 -8.17216815E-02 -7.75823975E-03 -5.29561318E-02
 -3.30585160E-03  4.84936310E-05  8.26094923E-02 -3.28703292E-02  1.38501870E-03
  2.54914313E-03 -8.22563646E-01 -5.23193224E-01  3.44689226E-03 -1.28731043E-02
  9.86613175E-01  6.26445544E-01 -4.15334623E-03  7.46945610E-02 -5.86974971E-01
 -2.37396896E-01  3.05670141E-03  4.54639214E-02 -9.45437446E-05 -5.38095798E-05
  7.22138827E-02 -1.90871176E-02  1.49363339E-03  2.69262082E-03 -5.89690999E-01
  5.52042206E-01  4.51639585E-03 -1.23737161E-02  7.06392546E-01 -6.57181703E-01
 -5.46572635E-03  4.49291453E-02 -4.52976857E-01  2.53970402E-01  3.76820111E-03
  4.17127838E-02 -2.06537310E-05 -2.06577058E-05  7.10288167E-02  1.30010777E-03
 -1.02888033E-02 -6.95656292E-03  1.61725942E-01 -4.72368937E-02 -7.47603890E-03
  1.65576616E-02 -5.85840624E-01  1.93482327E-01  3.02164516E-02  1.12126142E-02
  1.22773687E-02  3.47539895E-02  3.98156268E-03 -2.69638698E-02  9.91211871E-03
  3.11997564E-04  3.41621601E-01  4.03875769E-02  2.41326630E-02  5.37710367E-02
 -2.59238925E-02  1.99361441E-02 -2.07209742E-02  4.93853464E-02  1.09319597E-01
  2.14730683E-01 -1.52255705E-02 -4.43261815E-02  1.85700539E-01  1.24692211E-02
  9.55900648E-03  3.55051100E-02 -2.89922464E-02  2.97045855E-02 -7.25414622E-03
 -3.34387196E-02 -7.98421541E-02 -8.88716940E-02  1.97061652E-01 -2.00566562E-03
  9.55432558E-04  5.54114169E-01 -9.55108575E-01  2.78519899E-02 -3.07950617E-04
  6.64993941E-01 -2.32415968E-01  5.22628125E-03  1.17557127E-03 -3.85498951E-01
 -2.32613680E-03  4.90408003E-05 -8.45350688E-01  6.56361468E-02  1.34277438E-02
  2.34120012E-02  5.04447178E-01 -7.13218805E-01 -2.16932506E-03 -1.01354828E-01
 -7.52026840E-01  1.09788133E+00  3.18894130E-03 -7.68202725E-01  1.47809495E-01
  2.28266633E-02 -5.41778779E-04  1.81315307E-01  1.01535810E-03 -1.12664791E-03
  1.50892319E-01  2.75278161E-01  1.34936131E-02  2.34901345E-02  5.79929035E-01
  6.61822970E-01 -2.05254423E-03 -1.01487009E-01 -8.66560508E-01 -1.02120727E+00
  3.02661172E-03 -7.73213316E-01  1.51420013E-01 -3.85513889E-02 -4.65485842E-04
  1.80700707E-01  1.12570318E-03  9.76072133E-04  9.26324270E-02 -3.01603077E-01
 -3.16096100E-03 -4.50445860E-03 -4.50979011E-03 -7.93474198E-03 -6.85866754E-04
  1.41284775E-02  4.39940670E-02  4.74086183E-02  3.35562391E-03  3.66391242E-01
 -5.09699371E-02 -1.64747720E-01  2.36483943E-03  3.52387965E-02  3.17405406E-04
 -4.45938218E-03 -8.97658077E-03 -4.05042564E-03  2.76279468E-02 -1.59405186E-01
  3.02344209E-02  5.15946068E-02  2.98925178E-02 -2.97847153E-02  1.80513086E-02
 -8.74429641E-02 -7.12671014E-02 -2.55604214E-02 -2.14283404E-02 -3.68200556E-03
  2.80435576E-02 -1.61515995E-01  2.36532722E-02  4.74905071E-02  2.52053956E-02
  3.52924770E-02 -8.14419033E-04 -9.86933001E-04 -9.92073713E-03 -3.55434304E-01
  2.87160683E-04  2.19718005E-02  7.88321161E-02  2.00711836E+00 -6.38345330E-04
 -1.52660785E-01 -3.67275565E-02  8.99509814E-01  8.97868052E-04  3.35690905E-03
 -2.40059934E-04  4.42190663E-03 -9.24372775E-02 -1.03579578E+00  1.90383838E-02
  3.20248907E-02  1.61454318E-01 -8.57950982E-01 -1.02618337E-03 -1.08715232E-01
 -3.19238589E-01  1.50197196E+00  1.88482871E-03 -1.50953432E+00 -2.69253861E-01
  1.62457225E-01  3.61542230E-04  2.05566900E-01 -2.32103545E-04 -8.66703820E-04
  3.84287810E-01  2.61062781E-01 -1.96229156E-02 -3.29865003E-02 -2.42408639E-01
 -8.38558279E-01 -7.89286010E-04  1.19186911E-01  4.61555326E-01  1.46715678E+00
  8.10210252E-04  1.51073760E+00  2.89460339E-01  1.30058883E-01 -3.03209037E-03
 -1.99030867E-01 -1.58783720E-04 -1.06187143E-03 -3.28738121E-01  3.29305447E-01
  6.33420430E-01 -6.91344379E-01  2.68792412E-02  1.20182298E-03  4.99211852E-04
  2.05303384E-01 -2.11297930E-02 -1.12688412E-02 -2.60885492E-03 -2.82343209E-01
  1.21861565E-01 -1.47177834E-02 -1.25618811E-03 -2.00514400E-02 -9.69400946E-04
 -1.79682117E-04  1.00285421E-02 -6.86264234E-03  4.82291441E-03 -1.41373693E-02
  5.26252537E-03  9.66958681E-03  1.56521035E-02 -2.39745999E-02  1.94885451E-03
 -3.79524886E-02  5.56621935E-03  1.33918246E-02 -4.03004743E-02 -2.40185207E-03
  5.34161570E-03 -1.04021254E-02  4.92670462E-03  8.45135726E-03  1.16992259E-02
  2.40151619E-02 -1.93302612E+00  2.11488955E+00 -8.57586427E-03  4.75171784E-04
  9.46233150E-05 -6.02878325E-01  1.03667901E-01 -4.90574892E-03 -5.89315218E-04
  3.95089097E-02  2.62373980E-01 -2.48978304E-03  3.36915091E-04  1.17000741E-01
  3.85586706E-04 -1.36905461E-05  1.02999409E-01 -1.03943813E-02 -6.27462822E-03
  5.40654992E-04 -2.78574256E-02  4.73391803E-02  7.88820232E-05 -2.62343314E-02
  7.64627255E-02 -1.27096213E-01 -2.11037033E-04  2.98046964E-01  6.56299129E-03
 -1.45617217E-01 -3.49894257E-04 -5.74744181E-02 -1.41805024E-04  3.03503941E-04
 -5.66282794E-02 -6.65514251E-02 -6.19161288E-03  5.41170470E-04 -3.22709207E-02
 -4.47196778E-02  7.58115047E-05 -2.71412472E-02  8.84915380E-02  1.20029885E-01
 -2.01731237E-04  3.07416404E-01  1.90121765E-02  1.45976103E-01 -3.77325445E-04
 -5.72331916E-02 -1.71066686E-04 -2.88901595E-04 -4.41314106E-02  7.57427989E-02
 -1.93624142E+00  2.12357125E+00  3.39654724E-02  2.16944149E-03  6.78375982E-04
 -6.75793607E-01 -1.79699608E-01 -1.14702388E-02 -3.11664362E-03 -2.87430896E-02
  5.77247607E-03 -7.22906230E-04 -5.24667064E-04 -4.11402594E-02  1.74784801E-04
  9.12270740E-05  6.98212247E-02 -6.38667436E-03 -3.94015398E-03  2.51830497E-01
 -6.22556916E-02 -5.22346778E-02 -9.38348407E-02  1.36663536E-01 -6.26116312E-03
  2.42374772E-01 -6.31043721E-02 -4.63079894E-02  1.60665638E-01  9.25164175E-03
 -3.71372860E-03  2.52312557E-01 -6.18540657E-02 -5.05755784E-02 -7.61869561E-02
 -1.48307271E-01 -6.34668346E-01  6.97433738E-01 -3.67999742E-02  3.34048260E-03
 -7.43539166E-05 -2.21484854E-01  9.20539360E-02 -1.48005913E-02  9.09197506E-05
 -8.07063701E-03  7.41875959E-02 -3.13146302E-02 -1.08044841E-03  3.68866087E-02
  4.76787430E-04 -7.15623064E-05  8.15053949E-02 -5.47920295E-04 -4.01888955E-03
  2.53633768E-04 -1.33713538E-02  2.18249277E-02  2.20398503E-04 -2.69600256E-03
  3.94491818E-02 -6.58710336E-02 -6.28553207E-04  1.44029438E-01  9.03203228E-03
 -5.49282428E-02  8.72847987E-04 -2.24714583E-02 -4.84352226E-08  3.12840684E-05
 -2.38278244E-02 -3.14586651E-02 -4.95910055E-03  2.53919713E-04 -1.61244087E-02
 -1.70448438E-02  2.26961423E-04  7.69763490E-03  4.73110773E-02  5.10336989E-02
 -6.36971276E-04  8.54785779E-02 -5.52996678E-03  4.62372824E-02  9.05977842E-04
 -2.01945463E-02 -1.76798382E-05 -3.03658954E-05 -1.55957997E-02  3.21885929E-02
  3.59541030E-03 -6.05824306E-03  1.05916349E-02 -1.56879290E-03 -2.45582960E-04
  1.43493763E-02 -5.08801078E-02  5.44378624E-03  6.23206853E-04 -1.18011934E-01
  3.71172686E-02 -2.46344771E-02 -3.35660022E-03 -4.65795119E-03  1.37344493E-04
 -6.79709211E-05  2.68914491E-02 -2.26928985E-04 -2.18693223E-03  3.21727173E-02
  4.13570071E-03 -4.02694975E-03 -2.02865834E-03  1.04362307E-02  5.56614924E-03
  1.96435405E-02 -1.34419043E-02 -3.15825948E-03  1.15375138E-02  1.10892557E-03
 -3.46366731E-03  3.36938129E-02  6.76713673E-03 -4.20172853E-03 -1.01429705E-03
 -1.02946127E-02  9.80097446E-03 -1.57365650E-02  1.88792187E-02 -4.27137598E-04
 -9.16989898E-05 -2.20207700E-02 -4.53643327E-02  1.27947429E-04  2.16462140E-04
 -1.57176578E-01  1.52986112E-01  2.72957706E-03  5.89407626E-05 -1.75592013E-02
  1.95917368E-04 -1.73358423E-05 -5.91429047E-02  6.92071440E-03 -1.57351816E+00
  1.63790711E+00  4.73203498E-03 -9.61581151E-03 -8.40690969E-06 -2.11373168E-01
 -1.66932491E-02  3.86385381E-02  3.62740297E-05  2.41959610E-01 -2.12265915E-03
 -8.34039208E-02 -4.89506545E-06  2.59137587E-03  7.14632973E-05 -3.45450040E-05
 -4.00359522E-03  9.94743864E-03 -1.60367852E+00  1.66936404E+00  5.22848457E-03
  9.72194146E-03 -9.56730622E-06 -2.15613569E-01 -1.91547391E-02 -3.90315633E-02
  4.21924987E-05  2.50628093E-01  2.78219475E-03  8.42490095E-02 -2.59109712E-05
  3.38382549E-03  6.96325132E-05  2.83167820E-05 -5.46151491E-03 -9.52691683E-03
 -7.40960401E-04  1.26789936E-03  2.04742256E-04 -3.65249555E-03  5.44512261E-05
  1.35515099E-03 -4.54047417E-03  1.14229278E-02 -3.01972542E-04 -5.00568063E-02
  8.69832209E-03  7.36236748E-02 -2.85506099E-04 -1.44053347E-03 -3.82646053E-05
 -1.23218315E-04  2.00243209E-03 -1.30309894E-02 -2.15107631E-03  7.83639001E-03
 -2.59292359E-03 -6.52680207E-03 -5.25274366E-03 -4.17255566E-04 -3.37336316E-03
  3.13124137E-02  8.47322741E-03  3.20539696E-03  4.42573568E-03  7.96206513E-04
 -2.29761554E-03  1.01406383E-02 -1.87343814E-03 -6.00878341E-03 -5.46160504E-03
 -5.75863645E-04 -8.93105480E-05  1.61431410E-04 -1.66291180E-03 -3.44527603E-02
 -1.60325016E-05 -2.42488165E-03  3.78748628E-03  8.28781621E-02  4.68559980E-05
  2.12182364E-02 -2.71827404E-04 -2.98164479E-01 -3.78286602E-05 -7.36845155E-04
  5.15337403E-05  1.48071229E-04 -6.92515794E-03 -6.39117860E-02 -1.60405925E+00
  1.67363058E+00  4.77476794E-03 -1.45078455E-02 -4.87941994E-05 -2.39780321E-01
 -2.16571298E-02  5.68649322E-02  1.69231611E-04  3.17795795E-01  5.71433402E-02
 -5.88446663E-02 -3.09150895E-04  4.84803244E-03 -2.47875874E-05 -3.28816359E-05
  1.57514020E-02  1.98549463E-03  1.57390410E+00 -1.64223307E+00 -6.20249419E-03
 -1.35811285E-02  7.84039967E-05  2.35818671E-01  2.69524155E-02  5.29919731E-02
 -2.55548372E-04 -3.17282151E-01 -6.64196460E-02 -5.15062425E-02  4.75582314E-04
 -4.98701254E-03  3.88580567E-05 -2.54656247E-05 -1.53058153E-02  4.15289231E-03
Orthonormal basis                          R   N=        8100
  3.79687779E-02  4.35565569E-02  2.30383383E-03  1.17422281E-03  2.05353022E-04
  1.30105785E-01  1.00340441E-03  2.75245885E-03  4.55545110E-04  1.66077004E-01
 -4.97628525E-03  3.68526048E-03  5.65297245E-04 -9.48834143E-04 -6.79862614E-05
  7.73171308E-06 -1.12261127E-03 -3.87607401E-04  5.01131979E-02  9.72476468E-02
  1.28165922E-01 -1.28435426E-02 -1.77619495E-02  2.76679061E-02  4.89253490E-02
  9.53063653E-02  1.26502787E-01 -1.20229744E-02  3.25626979E-02  1.97174634E-03
  5.02223758E-02  9.74234348E-02  1.28318476E-01 -1.24937606E-02 -1.42903398E-02
 -2.98077696E-02  1.71970064E-02  1.97297078E-02  1.68471281E-02  6.48084180E-05
  9.57237892E-05  6.09167323E-02  4.68692742E-02 -3.47105766E-05  2.43217149E-04
  9.31729618E-02  1.01169733E-01 -9.86766549E-04  4.33623355E-04 -1.16961243E-02
  1.08504910E-04 -8.67115718E-07  6.06925250E-03  2.82765274E-04  3.39511855E-03
  3.57712633E-03  6.35236791E-03 -2.96183401E-03  7.80579772E-06  1.24210066E-02
  1.74393818E-02 -8.48791247E-03  2.03117582E-05  2.81342185E-02  4.56944148E-02
 -2.48180200E-02  4.25383612E-05 -2.16527525E-03 -4.96656066E-06 -1.44638399E-05
  1.27183548E-03 -4.33727639E-03  2.91737759E-03  3.07184594E-03  6.20677754E-03
  2.24729259E-03  8.38477378E-06  1.08345557E-02  1.71043497E-02  6.55179436E-03
  2.19811520E-05  2.57034735E-02  4.54959181E-02  2.04590919E-02  4.52393461E-05
 -2.12998805E-03 -2.77667749E-06  1.41674603E-05  1.83487804E-03  3.80654500E-03
 -1.63536630E-02 -1.83714337E-02 -4.48673463E-02  1.62600070E-03 -1.49320450E-05
 -3.76473246E-02 -9.85273304E-02  3.65638602E-03 -1.95023354E-05 -1.33172913E-02
 -1.64080945E-01  6.20977428E-03  1.91217230E-05 -1.51681437E-02  3.87150762E-05
 -3.29516121E-06  2.35403290E-02 -1.66731489E-03 -3.35097184E-02 -4.85606909E-02
 -2.80671285E-02 -1.78803416E-02  1.58276760E-02 -2.08634944E-02 -3.52076842E-02
 -5.09873546E-02 -3.06154184E-02 -1.77884654E-02 -2.59874216E-02 -1.49561034E-03
 -3.32435511E-02 -4.81968463E-02 -2.76666432E-02 -1.81894406E-02  1.29664083E-02
  2.24912048E-02  7.38412130E-02  8.28909450E-02 -2.54288573E-02  1.42725415E-03
  1.56013051E-04  1.87375379E-01 -5.09158254E-02  2.80422056E-03  2.93711761E-04
  1.79407097E-01 -7.66217671E-02  3.60442896E-03  2.49054965E-04 -3.28168496E-02
 -8.94750104E-05  4.40589841E-06 -2.03151267E-02  1.99481323E-03  3.12015515E-02
  3.27767579E-02  8.38264782E-03 -3.26324137E-02 -2.21998933E-05  8.03371857E-02
  1.85150637E-02 -7.35480822E-02 -4.68905120E-05  1.16547328E-01  2.68489361E-02
 -1.27600848E-01 -5.94739947E-05 -1.02454416E-02 -5.84676727E-06  3.09556506E-05
 -1.32817385E-02 -8.54057780E-03  3.10248204E-02  3.25911271E-02  1.11788023E-02
  3.17007944E-02 -2.22524308E-05  7.98832745E-02  2.48113440E-02  7.14880741E-02
 -4.70786511E-05  1.16029125E-01  3.80349931E-02  1.24709834E-01 -5.93849950E-05
 -1.01604911E-02 -8.89502729E-06 -2.98525977E-05 -1.15615397E-02  1.07577011E-02
 -1.45460637E-03 -1.62774514E-03  1.77978982E-03  7.97878088E-02  1.82695086E-05
 -3.55353600E-03  3.84594283E-03  1.58740362E-01  3.80702338E-05 -4.36675473E-03
  6.00247497E-03  2.00070611E-01  4.53691903E-05  1.86955113E-02 -1.44587964E-04
 -3.87806484E-03  8.61632659E-03 -9.91189460E-03  4.79629499E-02  6.37878491E-02
  4.58369353E-02 -1.84410776E-02  2.65780496E-02  2.89563120E-02 -8.69211698E-02
 -1.16762959E-01 -8.72942101E-02  3.47719054E-02 -1.65415108E-02 -3.49265769E-03
  3.87499139E-02  5.14650198E-02  3.67534757E-02 -1.44219055E-02  3.34041114E-02
 -2.54782130E-02 -1.16144749E-03 -1.29770263E-03  2.81290043E-03  8.23165249E-02
  5.65625124E-06 -2.83463909E-03  5.54447066E-03  1.66203372E-01  1.30346162E-05
 -3.21380596E-03  5.45426520E-03  2.01775901E-01  2.40470549E-05  2.03218459E-03
 -2.99211754E-06 -2.79896323E-04  1.68863900E-03  7.68775769E-03  3.65778647E-02
  3.83971097E-02  2.00771381E-02 -1.26733959E-02 -1.24050028E-04  8.64796073E-02
  4.34588319E-02 -2.53844687E-02 -2.69399435E-04  1.01175569E-01  6.50692456E-02
 -4.64791666E-03 -4.72499150E-04 -6.17431987E-03 -7.18424037E-05  6.17002069E-05
  5.76942005E-04 -1.18903606E-02 -3.73237405E-02 -3.91793461E-02 -2.26252519E-02
 -1.10460754E-02  1.26650681E-04 -8.83040620E-02 -4.88238784E-02 -2.17845537E-02
  2.74693073E-04 -1.04183621E-01 -7.15924891E-02  8.59080668E-04  4.76606564E-04
  6.65872423E-03  7.89178715E-05  5.90344439E-05 -3.11887287E-03 -1.21527977E-02
 -2.51552638E-04 -2.79905987E-04 -2.08924033E-04 -9.27701622E-06  1.07872845E-01
 -5.63016023E-04 -3.20831087E-04 -1.81804367E-05  2.04003050E-01 -7.04505535E-04
 -1.68795008E-04 -3.40598027E-05  2.34069431E-01  5.78634082E-03  4.59740179E-03
  3.43759599E-02  2.86416096E-03 -2.09693759E-04 -9.84331608E-02 -1.24968338E-01
 -8.42368547E-02  3.48625321E-02  3.98948121E-02  3.10036109E-03 -7.12774258E-03
 -9.10768553E-03 -6.34002846E-03  2.33359972E-03 -4.99540137E-03  6.01147165E-02
  1.05958252E-01  1.34415790E-01  9.01534634E-02 -3.69387922E-02 -3.49584497E-02
 -6.90771189E-03 -2.42680461E-04 -2.69156869E-04 -1.96161126E-04 -2.60758677E-05
  6.73258038E-02 -5.42805708E-04 -3.78767377E-04 -4.99966069E-05  1.35746412E-01
 -5.41400769E-04 -5.43466527E-04 -4.75972897E-05  1.89122297E-01  7.26638208E-04
  2.24154665E-02  3.42130868E-03  5.50090241E-04 -4.00925350E-05 -1.08061325E-04
 -1.13131342E-04 -2.11570137E-04 -1.48300625E-05  2.64503312E-02 -2.34199289E-04
 -4.37682557E-04 -6.13958405E-05  5.61740721E-02 -3.36805965E-04 -7.98801485E-04
 -2.15890415E-04  9.93112940E-02  2.35471201E-05  8.13963917E-03 -1.42754898E-02
 -7.78101012E-05  6.28948810E-05 -7.12463819E-05 -7.45786879E-05 -1.90127198E-04
  3.88154347E-05  2.47785647E-02 -1.53530438E-04 -3.89421564E-04  1.09291929E-04
  5.26884646E-02 -2.44165177E-04 -7.19738685E-04  2.60897441E-04  9.28265549E-02
  1.89753763E-05  8.41983237E-03  1.28061576E-02 -8.64873030E-05 -4.19415882E-05
  5.09900740E-04  5.57891252E-04 -1.18110961E-01  3.32303036E-03  8.23705109E-05
  2.91540572E-03 -2.08652736E-01  5.79304241E-03  1.10174690E-04 -5.30934983E-03
 -1.68810624E-01  4.21934861E-03  5.73948519E-05 -2.21891261E-02  1.35655194E-04
  8.85148660E-05  3.39582959E-02 -2.43942933E-03 -4.49619779E-02 -5.21057147E-02
 -3.59613396E-02 -5.20586212E-02  2.22646389E-02 -2.81861545E-02 -4.63739907E-02
 -5.35921756E-02 -3.59214538E-02 -5.24548225E-02 -3.63026275E-02 -2.01308355E-03
 -4.41401467E-02 -5.12105685E-02 -3.56219106E-02 -5.25619314E-02  1.80210986E-02
  2.99869064E-02  7.95189978E-03  8.76883327E-03  1.33168264E-01 -4.87742574E-03
 -7.28258936E-06  1.22126307E-02  2.35372046E-01 -8.70805654E-03 -4.12881016E-06
 -7.16680458E-03  1.89515616E-01 -7.77034418E-03  1.28721772E-05  6.69087485E-03
  2.23618290E-04  3.67659699E-06  4.98634486E-03 -4.59290898E-04 -3.46105094E-02
 -3.60576197E-02  3.71372887E-02  3.25813214E-02  5.84858156E-05 -6.26236133E-02
  7.35401115E-02  6.11736199E-02  1.10899166E-04 -6.17454301E-02  1.25238720E-01
  6.47302715E-02  1.16210114E-04  5.05371944E-03 -7.12171577E-06 -4.39230335E-05
  2.52249732E-02 -1.38281122E-02 -3.57923392E-02 -3.72885342E-02  3.34410975E-02
 -3.63342935E-02  5.49123713E-05 -6.47872331E-02  6.65592703E-02 -6.85419060E-02
  1.03998953E-04 -6.37990025E-02  1.17975630E-01 -7.63127056E-02  1.05275591E-04
  5.33788314E-03 -5.30552268E-06  4.38756220E-05  2.73376539E-02  8.57289375E-03
 -2.16164250E-04 -2.40504362E-04  1.40611234E-03  1.20512487E-01 -1.64022973E-06
 -3.60166853E-04  2.48065945E-03  1.93441751E-01 -2.36081788E-06 -1.23317124E-03
  2.26400816E-03  1.43609737E-01 -1.89475681E-05  3.89308303E-02 -2.89012793E-04
 -8.05457507E-03  2.42365812E-02  6.92411831E-02  7.63918974E-02  8.28097352E-02
  3.71382875E-02 -1.33108064E-02  2.52240694E-02  4.86979732E-02 -1.36224077E-01
 -1.47373604E-01 -6.85259576E-02  2.50519746E-02 -4.34944326E-02 -5.77823740E-03
  6.18105026E-02  6.70460904E-02  2.98969632E-02 -1.00363676E-02  3.68266553E-02
 -4.29751876E-02 -2.26839503E-04 -2.40924699E-04 -4.25741146E-03 -1.04809542E-01
 -4.96783680E-05 -4.45392216E-04 -6.79971707E-03 -1.72818819E-01 -8.56029833E-05
 -1.63108863E-04 -4.68233059E-03 -1.12238797E-01 -8.60053611E-05  3.40906037E-03
 -2.77629635E-05 -1.18464742E-03  1.40757605E-02  1.15488768E-01 -8.62531304E-02
 -8.95780222E-02 -1.35711827E-02  4.10984188E-02 -1.64108113E-04 -1.38642768E-01
 -2.25836312E-02  6.77509354E-02 -3.09247256E-04 -1.19415644E-01 -5.70261601E-03
  2.26307847E-02 -5.86192202E-04  1.04294522E-02 -8.46522368E-05  2.61909608E-05
  1.92977342E-02  1.55786764E-02  8.37358849E-02  8.69632022E-02  1.52991014E-02
  3.92967676E-02  1.07833464E-04  1.34669927E-01  2.52658583E-02  6.51186838E-02
  2.03659227E-04  1.15699280E-01  3.46853177E-03  2.39788513E-02  4.21823417E-04
 -9.70850722E-03  7.57371914E-05 -7.59476184E-07 -1.64884690E-02  1.81803878E-02
 -1.28656169E-04 -1.36274318E-04  6.69854070E-04  5.37357327E-05 -1.11737006E-01
 -1.84884353E-04  9.41168357E-04  8.16512948E-05 -1.62833350E-01  1.89582457E-05
  5.21533181E-04  7.34975759E-05 -8.78762537E-02 -8.83981151E-03 -1.00630539E-01
 -4.88537976E-02 -4.34372742E-03  3.62983918E-04  1.08342550E-01  1.05255113E-01
  3.58755405E-02 -9.00296353E-03 -4.93025249E-02  1.74808290E-02  7.80667633E-03
  7.51342175E-03  2.64521426E-03 -3.43208884E-04  5.87998265E-03 -5.03601656E-02
 -1.16551235E-01 -1.13449997E-01 -3.84920616E-02  9.20253474E-03  4.35080473E-02
  2.93823040E-02 -2.81107825E-04 -3.03118197E-04  3.01485088E-04 -4.08749365E-05
  1.38662312E-01 -3.19605731E-04  4.04279678E-04 -5.85655677E-05  2.21939828E-01
 -2.66975973E-04  3.45532226E-04 -2.51685322E-05  1.91445138E-01 -4.85653705E-04
 -8.21954770E-02 -4.16504754E-03 -1.46478883E-03  1.80725322E-04  5.63408171E-04
  5.81833725E-04  6.42704976E-04  2.28189035E-05  8.87427177E-02  7.11294864E-04
  1.05742955E-03  1.16426548E-04  1.51104548E-01  5.30444670E-04  1.20008682E-03
  5.20356346E-04  1.86483197E-01 -1.60046572E-04  9.54018749E-03 -3.71776371E-02
  1.05966884E-04 -2.44328128E-04  6.28522718E-04  6.49054447E-04  6.35429100E-04
 -2.70123779E-05  9.39640008E-02  7.94028711E-04  1.03343841E-03 -1.28115009E-04
  1.59848984E-01  5.82103534E-04  1.11164385E-03 -5.65634215E-04  1.97271181E-01
 -1.72370152E-04  1.47314129E-02  3.80495259E-02  1.28500326E-04  2.40437515E-04
  4.54538359E-02  4.77008076E-02 -3.80930649E-02 -3.20040264E-03 -1.51031179E-03
  4.68759242E-02 -5.08845554E-02 -4.96239762E-03 -2.11293852E-03  1.07652407E-02
 -5.08831741E-03 -6.05617226E-03 -1.47424885E-03  1.42762109E-03 -8.58514065E-04
 -3.11960178E-04  3.30208173E-02 -1.60045068E-03 -3.33960052E-03  1.54219865E-03
 -8.50882461E-03 -1.24267929E-02 -1.23927030E-02  2.21541616E-03 -7.33576991E-03
 -2.02822901E-03 -1.24602244E-02 -7.39195768E-03  1.17117701E-02 -8.12640194E-04
 -4.09394348E-03  9.71362475E-04 -8.01966909E-03 -1.32326473E-02 -1.01847371E-02
 -3.68822162E-03  8.81377861E-02  9.29307702E-02 -3.04496753E-02  1.38603815E-03
  5.83743247E-04  7.02090179E-02 -3.00245206E-02  1.46654951E-03  7.92944931E-04
 -4.95749050E-03 -4.07770290E-03 -3.62388210E-04  3.48253634E-04  4.96003641E-02
 -7.41397037E-04 -3.19787885E-05  1.94954607E-01 -2.21827578E-02 -1.83184176E-01
 -1.87773188E-01 -6.70752260E-02 -6.16719016E-02  5.78425374E-04 -1.74085093E-01
 -9.80962165E-02 -1.05699338E-01  8.72344597E-04 -1.09088032E-01 -7.40713483E-02
 -1.47050847E-01  8.05743160E-04 -2.37554546E-03  1.04395581E-04 -2.12159324E-04
 -2.67808692E-02  2.66657082E-02 -1.88305211E-01 -1.93021428E-01 -5.85849558E-02
  6.53293349E-02  6.43904966E-04 -1.78951611E-01 -8.38944462E-02  1.11216343E-01
  9.71618041E-04 -1.11766248E-01 -5.54087087E-02  1.52018925E-01  9.00195611E-04
 -2.27844364E-03  1.39083867E-04  2.25141064E-04 -2.97543989E-02 -2.12885346E-02
  3.26797696E-04  3.44737820E-04  3.14695116E-04  2.68755993E-02  5.51678758E-05
  1.23301327E-04  1.99124144E-04  2.68131024E-02  7.43201080E-05  3.65203525E-04
 -1.47306031E-03  2.98724808E-04  4.92629733E-05  2.19472237E-02 -1.40271417E-04
 -4.50220629E-03  1.75213484E-02  1.20739772E-01  3.51932543E-02  2.57669989E-02
  6.44965830E-03  1.44928805E-02  1.98501300E-03  2.09847224E-02 -6.32112498E-02
 -4.62139913E-02 -1.08782274E-02 -2.42055928E-02 -2.74987228E-02 -2.49989173E-03
  2.84213483E-02  2.08207252E-02  5.20199238E-03  1.21661869E-02  7.09725494E-03
 -1.83830643E-02 -1.29751517E-03 -1.34456078E-03 -6.01871013E-03 -1.55408858E-01
 -1.17431897E-05 -8.41354525E-04 -6.22315241E-03 -1.65588147E-01 -1.45076161E-05
  1.12898479E-03  1.13712504E-03  9.81982667E-03 -2.60654883E-07  1.16336915E-03
 -5.92070473E-05 -1.79907103E-03 -9.32158212E-03 -1.08464194E-01  1.72456041E-01
  1.75997092E-01 -1.16762440E-01  7.53174797E-02 -8.71950679E-04  1.31923224E-01
 -1.72037607E-01  1.14190880E-01 -1.24641519E-03  8.40811411E-02 -1.51287835E-01
  9.39384475E-02 -1.08811907E-03  1.70890741E-02 -1.16067698E-04  2.39520718E-04
 -2.76132120E-03  3.58711455E-02 -1.66452789E-01 -1.69871672E-01  1.21794101E-01
  6.11551234E-02  8.46756171E-04 -1.27200502E-01  1.79791996E-01  9.34400819E-02
  1.20922788E-03 -8.09139126E-02  1.57464151E-01  7.61432741E-02  1.05031312E-03
 -1.64574012E-02  1.36258051E-04  2.23041576E-04  9.68494661E-03  3.44403308E-02
  1.56890456E-01  1.62683429E-01 -1.33933769E-01 -3.89409213E-04 -1.32327238E-03
  1.17818886E-01 -1.69826844E-01 -1.49395825E-03 -1.84177229E-03  2.50009919E-02
 -7.79752164E-02 -4.22010236E-03 -1.48896682E-03  2.13708014E-02 -7.82918047E-04
 -1.64477313E-04  4.77380759E-03 -1.55187712E-03 -1.99957660E-02 -1.00360407E-02
 -1.46472357E-02 -7.16999101E-02 -1.28146902E-02  5.65166044E-04 -2.73412582E-02
 -1.52895778E-02 -1.51389272E-02 -6.48969326E-02  1.01037383E-02 -1.25113040E-03
 -1.93780352E-02 -9.60326150E-03 -1.46131555E-02 -7.27623230E-02 -1.10470254E-02
 -3.30345091E-03 -9.43863766E-02 -9.77039609E-02  3.99755892E-02  1.42580009E-03
  8.15757828E-05 -6.09747130E-02  4.16296684E-02  1.55355334E-03  1.90787235E-04
  3.50541243E-02 -3.57579472E-02 -7.65009784E-05  1.47465146E-04 -2.64292337E-02
 -5.57197598E-04 -1.15197396E-04  2.23224351E-01 -2.31164134E-02  8.53710163E-02
  8.70098050E-02 -1.40833698E-01  5.56801459E-02  4.35470127E-04  6.41566907E-02
 -1.97191524E-01  7.34720856E-02  6.10209932E-04  5.87915450E-02 -1.51855050E-01
  3.81253839E-02  4.64000111E-04  7.80298771E-03  7.68674137E-05 -1.32560082E-04
 -3.82148762E-03  4.34543749E-02  8.74674637E-02  8.91496395E-02 -1.45897079E-01
 -4.98290545E-02  6.42683489E-04  6.56645606E-02 -2.03797690E-01 -6.52279128E-02
  9.04455178E-04  6.09802713E-02 -1.54207271E-01 -3.08777199E-02  7.10170408E-04
  8.65672020E-03  1.27418817E-04  1.79315770E-04 -1.02615297E-02 -4.34789026E-02
  1.91679393E-04  1.98035758E-04 -5.33121206E-05  1.12401536E-03 -1.26813038E-02
  1.30408042E-04 -6.29827796E-05  1.54187565E-03 -1.60313821E-02  1.62406235E-05
  1.32915507E-05  1.70727774E-03 -9.90018991E-03 -7.33524189E-04 -7.24544905E-03
  3.79776113E-02 -4.11647536E-04 -1.20674558E-03 -3.77997536E-03 -2.87062996E-03
 -4.34296355E-03  7.18990137E-03 -1.11153834E-02 -5.96832601E-04  1.97905232E-03
  1.42405602E-03  4.74850036E-04 -4.79219898E-04  1.47002618E-03 -2.32513770E-02
  1.68625489E-03  1.34425688E-03  3.78354482E-03 -6.77984381E-03  1.47976485E-02
 -1.17496496E-03 -7.01791182E-05 -7.24810468E-05 -8.41618078E-05 -2.51895293E-03
  1.71320057E-03 -4.28771874E-05 -7.37427831E-05 -2.30227946E-03  2.24136552E-03
  7.41365365E-06  3.89460176E-05  1.70055168E-03  2.42228733E-04 -5.90359280E-05
  9.51607462E-03  2.86798940E-01  6.42849227E-04  5.03857938E-03  1.42365140E-03
  1.44982176E-03  1.02953786E-03  3.82561445E-03  2.11411095E-01  9.75261123E-04
  1.49673599E-03  5.15403700E-03  2.94751868E-01  1.23906239E-03  1.60882691E-03
  3.10109690E-03  2.38859603E-01  1.33436464E-04  3.11632776E-02 -5.22430082E-02
  1.04033235E-03  1.62911861E-04 -1.36743287E-03 -1.39258538E-03 -9.04792623E-04
  3.88494306E-03 -2.06204960E-01 -9.35417403E-04 -1.33354695E-03  5.24981784E-03
 -2.87445027E-01 -1.18564591E-03 -1.54148331E-03  3.24992364E-03 -2.32508255E-01
 -1.36368885E-04 -3.57112267E-02 -4.76826758E-02 -1.01644151E-03  2.82950028E-04
  4.90123457E-03  5.04259651E-03 -4.08689087E-03 -4.95373016E-02  2.79899106E-04
  3.11034730E-03 -4.67942501E-03 -5.30773658E-02  3.38997997E-04  1.11178877E-04
 -3.71221709E-04  9.69463467E-03  1.91721442E-04 -3.52699911E-02  4.40836736E-04
  6.38330309E-03 -2.70531234E-02 -1.51151730E-01 -5.00027558E-02 -3.46469366E-02
 -3.46335994E-04 -2.08621072E-02  3.74866124E-03 -3.24652395E-02  8.78494986E-02
  6.00264591E-02 -1.68036275E-03  2.97124270E-02  5.06304871E-02  4.51621427E-03
 -4.06244526E-02 -2.82465224E-02 -6.17741257E-04 -1.75365141E-02 -5.05114337E-03
  2.84357711E-02 -1.80593633E-03 -1.86370372E-03 -3.28097822E-03 -7.04044775E-02
 -3.13132017E-05 -1.06011472E-03 -2.63201876E-03 -5.20992387E-02 -3.94246001E-05
 -5.81668425E-04  2.66320408E-03  9.18515872E-02 -9.21109714E-07 -3.10595916E-03
 -1.91081436E-04 -5.51489042E-03  2.70990987E-02  2.57367480E-01  2.43362919E-02
  2.47924020E-02  8.25878763E-02  1.94287592E-01 -4.10335945E-03  1.74517430E-02
  1.17649954E-01  2.54152094E-01 -5.63476816E-03  4.64092652E-02  1.13257572E-01
  1.46272030E-01 -4.48022136E-03  1.19112208E-02 -6.02408387E-04  8.27723406E-04
  5.13848245E-02  2.94201798E-03 -2.56077163E-02 -2.60823559E-02 -6.92926917E-02
  2.02287646E-01  4.01000518E-03 -1.82251262E-02 -1.00440116E-01  2.65596618E-01
  5.50666970E-03 -4.63088596E-02 -1.03884861E-01  1.57399410E-01  4.37426453E-03
 -1.23558742E-02  6.78441373E-04  7.39698798E-04 -5.05703343E-02  1.08555405E-02
  3.71576578E-01  3.77510879E-01  8.57940380E-02  5.24464670E-03  1.60996874E-03
  1.42402211E-01  7.83725767E-02  5.77698470E-03  1.71001254E-03 -3.72951312E-02
 -2.23136677E-02  3.13632955E-03  5.91227356E-04 -5.90892944E-03  9.70587541E-04
  3.43516078E-05 -2.76191893E-02  6.17426343E-03 -6.01721248E-02 -5.72728749E-02
 -8.74245040E-02 -3.02626756E-02 -6.02789623E-02  1.07572898E-01 -5.62062049E-02
 -5.45766855E-02 -8.61127453E-02 -3.51096717E-02  1.18002801E-01  8.28187902E-03
 -6.08167899E-02 -5.77025111E-02 -8.75369969E-02 -2.77264757E-02 -4.79707133E-02
 -1.14386908E-01 -4.66808151E-02 -4.77558970E-02 -5.99263337E-02  3.07412110E-03
  1.14672779E-04 -1.68353947E-02 -5.50949662E-02  2.91879203E-03  1.23184655E-04
 -3.67640291E-02  1.06998938E-02 -1.28170484E-03 -7.27751959E-05 -5.04722712E-02
  1.39711494E-04 -1.77424104E-05 -1.18135976E-01  9.65068840E-03  2.85492790E-03
  2.83462980E-03  8.93253087E-02 -6.19140916E-02 -2.43702500E-04 -1.18708196E-03
  1.09556057E-01 -7.15753769E-02 -2.95289832E-04 -2.84884258E-02  5.43283227E-02
 -2.03852760E-02 -7.43268335E-05 -7.98416342E-03 -4.34943159E-05  1.25555305E-04
 -2.08392809E-03 -2.08083136E-02  1.55742763E-03  1.52729380E-03  9.52716470E-02
  5.10756390E-02 -2.21684290E-04 -1.66086735E-03  1.16573208E-01  5.83101099E-02
 -2.67469580E-04 -2.80485246E-02  5.64212138E-02  1.40161449E-02 -6.01022350E-05
 -7.60845144E-03 -5.28988823E-05 -1.11736731E-04  2.36004949E-03  2.08257142E-02
  7.52697620E-02  7.55755208E-02  1.23422034E-01 -4.05714022E-03  1.65835470E-04
  2.04328805E-02  1.26062604E-01 -4.42910663E-03  8.77640146E-05 -1.94456883E-02
  6.26871331E-02 -2.57763261E-03 -2.22279745E-04 -8.00616767E-02  1.03199130E-03
  6.29690992E-05  1.86352026E-01 -1.03932321E-02 -3.84922683E-02 -2.76914858E-02
 -2.60040700E-02  9.59273175E-02 -5.55749487E-02  5.57077211E-02 -4.47388908E-02
 -3.09072020E-02 -2.54800316E-02  1.06510916E-01  7.95900925E-02  3.61709812E-03
 -3.69932575E-02 -2.69013099E-02 -2.61780672E-02  9.54036223E-02 -4.65615104E-02
 -6.15085339E-02  3.55766664E-01  3.57739125E-01  1.09746962E-01 -4.40841288E-03
 -5.55220280E-04  9.33432816E-02  1.01804683E-01 -4.25357638E-03 -6.24206294E-04
 -7.68676720E-03 -2.23040386E-02 -1.27010761E-04 -3.10497494E-04  7.40422334E-02
 -5.87049102E-04  7.36454964E-06  4.37550733E-02 -4.02062956E-03  3.56468284E-02
  3.58181929E-02 -3.68082038E-02  1.24429446E-01  7.52310968E-04  1.06346771E-02
 -3.92370136E-02  1.41138355E-01  8.81806130E-04  1.84668849E-02 -1.11554219E-02
  5.72944146E-02  5.46912053E-04  4.24558281E-03 -4.55141227E-05 -1.58083652E-05
  2.98935122E-03 -8.68231041E-03  3.34568625E-02  3.36225374E-02 -5.33822189E-02
 -1.18927439E-01  7.92227702E-04  1.00512018E-02 -5.84622841E-02 -1.35060424E-01
  9.30095871E-04  1.87658610E-02 -2.08202008E-02 -5.41702393E-02  5.62889741E-04
  4.59738159E-03 -3.79531623E-05  3.03507440E-05  4.91433499E-03  7.80951270E-03
 -4.31646258E-04 -4.18043579E-04  5.12928565E-04 -2.74983176E-04 -8.56466716E-02
 -1.08678122E-04  4.21621887E-04 -2.40579574E-04 -8.84023113E-02  5.67995749E-04
 -3.92618460E-04 -1.80780112E-05 -5.29921195E-02  2.87878764E-02  3.62774363E-01
  1.54874963E-01  1.44821629E-02 -1.21768459E-03 -1.57217939E-01 -8.67740210E-02
 -1.07633311E-02 -1.26594918E-01 -1.20446928E-02 -4.04718571E-02 -1.21964522E-02
 -6.73079663E-03 -5.34232283E-04 -7.84736740E-03  2.40154771E-03 -6.61805877E-02
  1.68301735E-01  9.29953738E-02  1.24047012E-02  1.38508889E-01  9.02862646E-03
 -3.52273652E-02 -2.60138516E-03 -2.56021236E-03 -3.41103964E-04  2.05153281E-05
 -1.57920720E-01 -3.14015755E-05 -2.18653837E-04  1.34695983E-05 -1.67331639E-01
  5.05980503E-04  9.01017592E-04 -1.90188514E-05 -8.94114859E-02  2.41491389E-03
 -2.79694216E-01  1.49340289E-02 -8.83207739E-04  8.84421310E-05  8.59631981E-04
  8.52926540E-04  1.56452223E-03 -1.10571628E-03  1.68589168E-01 -2.38744214E-05
  1.68091565E-03 -1.19384393E-03  1.80725454E-01 -5.46111516E-04  4.97249293E-04
 -8.17011174E-04  7.38651989E-02  4.07489146E-04 -2.90924075E-02 -2.15121807E-03
  1.50513064E-05  6.30572302E-05  9.13751013E-04  9.06647341E-04  1.65315884E-03
  1.03249532E-03  1.86777522E-01 -2.46580825E-05  1.77858736E-03  1.11603223E-03
  2.00516835E-01 -5.69944446E-04  5.74685902E-04  8.06027122E-04  8.20858797E-02
  4.07559280E-04 -3.03419025E-02  3.27735185E-03  1.15845527E-05 -7.36871659E-05
  2.56833574E-03  2.58434135E-03  6.59288726E-03 -1.49777118E-01 -6.21395044E-03
 -1.31755927E-03  5.36003070E-03 -1.31216609E-01 -5.28830982E-03  2.50783679E-03
 -5.52719808E-03 -3.40942634E-02 -9.82326915E-04  4.09067505E-01 -1.24531473E-02
 -6.58412467E-02  2.26590480E-01 -3.03631210E-02  1.02716156E-01  6.05061986E-02
  1.65333945E-02 -2.33236432E-02 -2.20176890E-01 -2.15710419E-01 -2.06068097E-01
 -1.22098590E-01 -2.76554104E-02  5.22095024E-02  9.90765404E-02  1.21546595E-02
  9.30044823E-02  5.50630159E-02  1.56973855E-02 -3.12367174E-02 -2.48594941E-01
  1.87194108E-01 -2.40973565E-02 -2.36461381E-02 -5.10571935E-03 -9.73368609E-03
  2.89703361E-03  9.71600315E-04 -3.69716402E-03 -1.25660369E-02  2.96939210E-03
  3.94138111E-03  7.49777774E-03 -3.21673249E-02  1.40796900E-03  3.56440837E-02
  4.30973473E-03 -1.66706879E-03 -1.50925101E-02 -1.53467424E-02  5.02531346E-02
  4.97877878E-02  7.80463432E-02 -1.21006983E-02  1.57482782E-03 -3.80926831E-03
  8.29906935E-02 -1.26463939E-02  1.74007899E-03 -2.98348562E-02  3.23769268E-02
 -1.20692125E-02  6.52134610E-04  6.98009429E-03  1.24250390E-04  4.34914380E-04
 -4.10135042E-03  5.01462001E-03 -2.47982910E-02 -2.45753046E-02 -2.88054567E-02
  6.93300745E-03 -7.47894723E-03  2.47533698E-03 -3.02119301E-02  8.59331625E-03
 -7.95894145E-03  1.24121665E-02 -2.26944619E-02  7.52660436E-03 -3.05423192E-03
  3.65004816E-03  9.55788432E-04  5.66117934E-04  8.25318696E-03  7.91181263E-03
  5.91756530E-04  5.87703647E-04  2.03729872E-03  6.86480492E-03 -1.33043197E-01
 -2.02537395E-04  1.70117560E-03  6.03823539E-03 -1.13360758E-01  8.32457254E-05
 -5.28203641E-04  1.83918335E-03 -2.33609695E-02  5.24936582E-02 -1.79007168E-01
  4.50576117E-01  2.94988874E-02 -3.13286403E-03 -1.34045739E-01 -8.10221812E-02
 -2.15404331E-02  1.05636863E-01 -2.04152787E-01 -1.38443474E-02  2.52078828E-04
 -1.53926638E-04 -3.46990267E-04  7.67142442E-03  2.41539414E-02 -3.59115852E-01
  1.32957779E-01  8.05063122E-02  2.19662729E-02 -1.13278129E-01  1.97733681E-01
  1.80331053E-02 -2.46182143E-03 -2.41333343E-03 -6.65430355E-04  9.63761699E-04
  5.49402037E-02  1.39603547E-04 -4.42687842E-04  1.13488838E-03  5.59511183E-02
  3.48026388E-04  1.18662010E-03  2.60873413E-03  2.64222685E-02  4.90937082E-03
  8.06571338E-02  7.14576484E-03 -1.88283243E-03  1.45017381E-03 -1.48722059E-03
 -1.47339743E-03 -7.11478117E-04 -1.69848722E-04 -8.88963489E-02  2.04260417E-04
 -7.12141764E-04 -3.16101183E-04 -9.36708419E-02  6.02341725E-04 -1.61819136E-03
 -5.69835985E-04 -3.41410985E-02  5.11308723E-04  1.24505711E-02 -5.71174680E-03
  5.42828684E-04 -1.01472945E-03  4.95293291E-03  4.90419985E-03  7.44538009E-03
  6.54930064E-04 -2.13881096E-02 -4.23731648E-04  7.89033752E-03  7.21081234E-04
 -2.17602556E-02 -3.05010223E-03  2.72018707E-03  1.24371475E-03 -7.81447403E-03
  8.53737815E-04  6.38541897E-03 -3.00285903E-03 -2.20653484E-04 -1.62429771E-04
  9.84231336E-03  9.63479619E-03  5.58881773E-05 -3.72986093E-02  7.21203081E-04
 -1.74996605E-03 -8.35061731E-04 -2.52894632E-02  6.03858083E-04 -2.80811203E-03
 -1.12204834E-02  2.67220356E-02  1.14153539E-04  9.06744419E-02  3.85628389E-04
 -1.70703180E-02 -2.16548628E-02 -1.95754022E-01 -6.96887100E-03 -1.15588553E-03
  7.64871079E-03 -8.08315504E-02 -2.63187567E-02 -8.37411907E-02  3.58620963E-02
  9.84213396E-03 -1.82875581E-02  7.24173902E-02  7.16004061E-02  1.24805841E-02
 -5.59053794E-03 -1.31761215E-03  5.63857334E-03 -6.96367082E-02 -4.74662745E-02
  7.32881642E-02  2.22992678E-02  2.18659893E-02 -2.58800601E-02  7.07216807E-02
 -3.54091302E-04 -3.17731435E-03 -2.17955437E-02  7.50965431E-02 -3.44878239E-04
  1.97970762E-03  4.82483446E-03  1.66257366E-01 -1.24468124E-04  2.62798136E-02
 -4.43659549E-04 -4.97696964E-04 -9.90196121E-03  4.87184502E-02 -2.29075955E-01
 -2.26507349E-01 -2.07136375E-01  6.74448633E-02  2.50006626E-03  3.12185443E-02
 -2.14909116E-01  6.73783181E-02  2.60740341E-03  1.35492136E-01 -1.07402882E-01
  5.87287091E-02  9.37980549E-04 -1.29295687E-02 -2.80558928E-04  2.82815944E-04
  5.09309347E-03 -3.91706170E-02  2.09044623E-01  2.06694884E-01  2.25773038E-01
  7.58511012E-03 -1.68846620E-03 -2.77090151E-02  2.34149091E-01  6.71680240E-03
 -1.77194442E-03 -1.23134055E-01  1.11054811E-01  2.68309814E-02 -6.91307361E-04
  1.36396903E-02  1.93447740E-04  2.31480093E-04 -2.33267609E-02 -3.06389485E-02
 -4.53881011E-02 -4.43928940E-02  1.48223550E-02  8.20988969E-04  1.29491436E-03
  9.45659236E-03  2.01142077E-02  1.51044580E-03  1.17156702E-03  1.07168182E-02
  8.53984724E-02  2.44443531E-03  5.33514693E-04 -1.94358450E-01  1.17112287E-03
 -2.07051840E-03  3.44277901E-01 -4.28932357E-02 -6.13512859E-02 -2.15705997E-02
  9.00615219E-03  1.55472625E-01 -2.95472847E-02  3.00018867E-02 -4.79052412E-02
 -1.59373981E-02  5.34834150E-03  1.86158821E-01  5.54542892E-02  5.45329184E-03
 -6.25625884E-02 -2.23515175E-02  8.86426456E-03  1.55377122E-01 -2.69106425E-02
 -3.18919495E-02 -1.59517507E-01 -1.56363263E-01  2.09582772E-01  9.62305294E-04
  2.40107147E-04  2.52175990E-02  1.81436144E-01  2.27173268E-03  1.77062392E-04
 -2.24780774E-02  2.64901295E-02  2.12280367E-02 -1.43965382E-04 -1.39224507E-01
 -8.58998855E-05 -7.93553711E-05  7.41091311E-02 -9.44794530E-04  6.71534372E-02
  6.63893314E-02 -5.65816370E-02 -1.43911394E-01 -3.95796977E-04 -1.20928258E-02
 -5.78684013E-02 -1.44482836E-01 -3.99763532E-04 -4.61389429E-02 -1.54018093E-02
 -8.12221088E-02 -6.70992165E-05  2.31372063E-03 -2.74502195E-05 -3.81189598E-05
  5.00416131E-02  4.61979193E-03  1.29167018E-01  1.27682944E-01  1.97180252E-02
  1.56068824E-01 -9.04592897E-04 -2.10979283E-02  2.04994970E-02  1.56483416E-01
 -9.29445596E-04 -8.34847467E-02  2.33123624E-02  9.41647198E-02 -2.79847672E-04
  6.64147312E-03  4.78532451E-05  1.18088927E-04  4.38701444E-02 -2.37558708E-02
 -1.09984634E-02 -1.06852688E-02 -7.83801141E-02  4.35105074E-03 -1.00357978E-03
  5.72000538E-03 -6.41980558E-02  3.14966407E-03 -7.35808079E-04 -1.92074101E-02
  4.26085959E-02 -3.71473647E-03  1.36977428E-04  9.45626105E-02 -3.29369166E-04
 -7.46310819E-04 -1.74668883E-01  6.10119994E-03  5.13370224E-02  2.77650192E-02
 -1.86602444E-02 -8.98378191E-02  2.86020329E-02 -3.47235831E-02  5.31308518E-02
  2.87843742E-02 -1.87726281E-02 -9.12718668E-02 -4.88925171E-02 -2.53034380E-03
  5.14700161E-02  2.82971906E-02 -1.77009264E-02 -8.80514846E-02  2.36173616E-02
  3.78576042E-02  2.38000964E-01  2.28340863E-01 -3.26238698E-02  8.51001341E-04
  2.25906309E-04 -5.61733666E-02 -1.19804815E-02  4.15197348E-04  2.24170499E-04
 -1.68840062E-01  1.17890868E-01 -6.26373037E-03  2.88270855E-05 -4.31754958E-02
 -2.90024027E-04 -2.94068458E-05  1.95361476E-03  2.95359489E-03  2.35917397E-01
  2.31349244E-01 -2.37355093E-02 -1.40827061E-01 -1.83376380E-04 -7.58011295E-02
 -2.28163626E-02 -1.36528670E-01 -1.73457773E-04 -1.92912184E-01 -3.41211671E-04
 -4.66289055E-02 -1.48911567E-04 -4.05727192E-03 -2.04554861E-05 -5.99659476E-05
  4.10713252E-03 -3.81702938E-03  2.29053560E-01  2.24616296E-01 -1.15524704E-02
  1.40533358E-01 -2.64474393E-04 -7.36618360E-02 -1.11179956E-02  1.35941770E-01
 -2.51911136E-04 -1.88430522E-01  2.99566564E-03  4.27529270E-02 -1.59496675E-04
 -4.69768776E-03  3.31285451E-06  8.60489682E-05  2.63127031E-03  3.20654195E-03
  4.59803882E-03  4.43133746E-03 -1.00549498E-02 -2.87488211E-01 -1.98846427E-04
 -1.06571333E-03 -7.88667266E-03 -2.02394366E-01 -1.48687961E-04 -4.96200410E-04
  2.99363808E-03  8.44709393E-02  7.40391745E-05 -1.09670798E-01  8.88998051E-04
  2.41825308E-02 -4.55148310E-02  3.12212197E-01  5.95911643E-02  5.78731229E-02
  5.20885169E-02  1.67669210E-01  1.13641265E-01 -2.93166883E-02 -1.08861631E-01
 -1.04311372E-01 -8.95988251E-02 -2.83327670E-01  1.54977934E-01  1.24914333E-03
  4.81696161E-02  4.68768350E-02  4.24695474E-02  1.36382615E-01  1.05953987E-01
  2.84161120E-02  6.27770679E-03  6.02306000E-03  1.86032935E-03 -1.53547590E-02
  5.28105572E-05 -1.91596978E-03  8.43891087E-04 -2.35212214E-02  4.07613009E-05
 -3.50405937E-03  3.68189188E-03  5.98663335E-02  4.10068826E-05 -1.16854061E-02
  4.24427236E-05  1.88961583E-03 -1.52080498E-02 -1.72444941E-01 -1.33744269E-01
 -1.31149498E-01  6.22521870E-02  4.17814137E-02 -1.34450719E-03  4.00821449E-02
  5.56729089E-02  5.05760962E-02 -1.28768303E-03  7.59525585E-02  3.97112726E-03
  7.51333164E-02 -3.07818114E-04 -4.51091670E-03  3.78104471E-04 -6.02082274E-04
 -5.36391882E-02  2.60881032E-02  1.34925210E-01  1.32307872E-01 -6.97243413E-02
  5.08477203E-02  1.18119175E-03 -4.09040079E-02 -6.23156360E-02  5.81011194E-02
  1.13351839E-03 -7.77830077E-02  1.73734836E-03  7.24578664E-02  2.88110538E-04
  1.95519343E-03 -4.33122356E-04 -5.30068928E-04  5.85886153E-02  1.71754150E-02
 -1.55433738E-03 -1.47833330E-03 -6.34115443E-04  1.05104093E-07  3.45703681E-01
  5.61665834E-04 -2.68652926E-04 -2.22358953E-05  2.08585189E-01  4.15418847E-04
 -4.00453866E-05 -9.22467990E-05 -1.50286464E-01  2.69214388E-02 -1.35146845E-01
  1.67447376E-01  1.40828344E-02 -7.38823862E-04  7.23438845E-02  1.03747580E-01
  1.01695326E-01  2.10261031E-01  8.62900565E-02 -2.17820359E-01  5.28993178E-03
  7.54015599E-03  7.15141768E-03  1.43912734E-02 -1.00591753E-02 -1.04142926E-01
 -7.76080525E-02 -1.11697894E-01 -1.10111077E-01 -2.25544967E-01 -7.67087845E-02
 -2.42084177E-01 -9.38178360E-04 -8.84308803E-04 -1.44743179E-03  1.12396448E-04
 -1.33158199E-01  3.53737101E-04 -9.94761341E-04  8.08816376E-05 -1.03496669E-01
  3.54385650E-04  5.86174305E-04  4.83203165E-05 -5.85923017E-02  3.46001412E-03
  6.61294100E-02  1.33092586E-02  1.09844801E-03 -2.56615382E-04  1.16686368E-03
  1.13677398E-03  1.72316243E-03 -3.60846884E-04  1.52292086E-01 -4.55944041E-04
  1.61266556E-03 -5.09371167E-04  1.34991052E-01 -7.43769810E-04  4.15069437E-04
 -8.21692919E-04  3.01004324E-02  6.69525490E-04 -2.08065580E-02  6.04032179E-02
 -4.16397530E-04  8.94119550E-04  1.55390268E-03  1.51395363E-03  1.62583650E-03
  4.16829526E-04  1.70470343E-01 -6.27560759E-04  1.55654592E-03  5.78573468E-04
  1.51593358E-01 -1.00365673E-03  5.62803180E-04  9.92348792E-04  3.61819007E-02
  7.72426735E-04 -3.39262143E-02 -7.20682172E-02 -3.91846598E-04 -8.62549213E-04
  7.88936354E-03  7.34697565E-03 -2.68830191E-03 -2.44086740E-01  9.85853557E-05
 -3.59776789E-03 -5.72158852E-04 -9.73435392E-02  9.57651453E-05 -3.81479905E-03
  6.03442160E-03  1.85501676E-01  1.32029464E-04 -1.46962887E-01  5.43912604E-04
  3.02828062E-02 -9.06430944E-02 -2.40969191E-01  7.68261127E-03  5.99103537E-02
  6.75069847E-02  7.47010520E-03  1.82520785E-01 -1.26522935E-01 -4.40531166E-03
 -1.02612300E-01 -1.21875774E-01 -7.08732386E-03  3.56584486E-01  1.45465048E-02
  6.67382003E-03  4.87753206E-02  5.46336406E-02  4.16227620E-03  1.51361614E-01
  1.12575804E-01  5.18293033E-03  4.78422857E-03  8.89235755E-03 -5.23264450E-02
 -7.98453878E-04 -2.38271521E-03  6.13629791E-03 -3.33750648E-02 -6.11359667E-04
 -2.47657323E-03 -4.62885067E-03 -3.33505038E-02 -4.33574242E-05 -1.61225083E-02
  5.51380729E-04  3.03644573E-03  1.88393519E-03  1.80896163E-01  1.23976519E-01
  1.19712841E-01 -1.22137045E-01 -9.57147330E-02 -8.33864438E-04 -7.78891911E-02
 -9.63407511E-02 -8.71458907E-02 -7.19789465E-04 -9.75687610E-02  1.63647223E-02
 -7.70813882E-02 -6.43731073E-04  1.95318859E-02  5.98460274E-04 -1.56701305E-03
  1.21267915E-01 -1.00346989E-02 -1.36041154E-01 -1.31360639E-01  9.53063297E-02
 -9.89285403E-02  1.96687117E-03  8.44550088E-02  7.24145189E-02 -9.22074532E-02
  1.63630106E-03  1.04137427E-01 -3.19536301E-02 -8.27891446E-02  7.91536875E-04
 -2.40873271E-02 -1.09078621E-03 -2.36066766E-03 -1.04052958E-01  2.74181092E-02
 -2.60618189E-04 -2.41619932E-04 -2.57616132E-03 -5.65961389E-04  1.54277606E-01
  1.81868921E-04 -1.31685097E-03 -2.14120140E-04  5.22605368E-02  4.50340892E-04
  1.16829268E-03  4.04051971E-04 -1.52827716E-01  2.33633260E-02  2.74588027E-01
  1.32949397E-01  1.23983371E-02 -1.46681214E-03 -2.37967185E-02  5.50385248E-02
  8.18433924E-02 -5.22682136E-02  1.15654264E-01 -2.21366087E-01 -2.30827692E-03
  3.71055238E-03  6.13187064E-03 -2.76099915E-03 -1.31764848E-02 -6.99077852E-02
  2.44171879E-02 -5.90244347E-02 -8.67469063E-02  6.13112273E-02 -1.01201928E-01
 -2.46025719E-01  5.17503560E-05  4.57101888E-05 -1.94174249E-03 -1.64876000E-05
  3.23195401E-01  4.19208693E-05 -1.28880150E-03 -4.46273585E-06  2.43658039E-01
 -2.50458160E-04  1.48675943E-04 -7.30679684E-05 -4.23271336E-03  9.38730126E-04
 -2.41108583E-01  2.41918562E-02  2.82935236E-03  2.04560179E-04  8.04618467E-04
  7.73941902E-04  1.31524969E-03  6.54663223E-04 -1.78216109E-01 -4.83201267E-04
  1.10217688E-03  3.16324615E-04 -1.37599413E-01 -5.09923885E-04  5.76863615E-04
 -2.38431275E-04 -2.74050328E-02 -7.04943234E-04  3.31599459E-02 -2.03263746E-01
 -1.77388749E-03  1.50245552E-03  2.72458419E-04  2.61858705E-04  1.84820885E-03
 -1.27151293E-03 -1.70864730E-01 -1.17816483E-04  1.52040222E-03 -8.56225977E-04
 -1.31675350E-01 -9.68195391E-05  4.42730364E-04 -1.28791330E-04 -2.27041495E-02
 -7.42422829E-04  4.38846135E-02  1.85222108E-01 -2.59133591E-03 -1.11091336E-03
 -1.72868556E-01 -1.58730305E-01  2.74225403E-01 -4.87563623E-03  1.44134520E-03
  9.84967319E-02  1.32579564E-01 -3.24515391E-03  4.62701847E-04  2.34070935E-02
 -1.41680927E-01 -8.77052115E-04 -1.74640662E-03  8.08002371E-02  8.55181448E-04
  4.74645205E-04 -1.39988597E-01  7.06753914E-03 -2.38874894E-02 -3.99923192E-02
 -6.80572082E-02 -1.47179879E-01 -1.09450640E-01  1.57863626E-01 -2.50168631E-02
 -4.14143133E-02 -7.01530061E-02 -1.49186969E-01  1.95673263E-01  1.03674330E-02
 -2.34166162E-02 -4.02057949E-02 -6.84204207E-02 -1.43081004E-01 -8.95830857E-02
 -1.74060640E-01 -3.75321613E-02 -3.37487445E-02  1.74531641E-01 -8.02926061E-03
  2.30416278E-03  1.25506965E-02  1.27782978E-01 -5.76336544E-03  1.72323020E-03
  5.34260159E-02  6.15170710E-02 -2.60027465E-03 -3.31993289E-04  1.38992072E-01
 -1.56230845E-03  1.21577286E-04 -2.03293573E-01  1.29643866E-02 -2.44967030E-02
 -2.34622448E-02 -1.77643510E-01 -7.60466637E-02 -1.21883104E-03  1.64834113E-02
 -1.36022879E-01 -5.15175959E-02 -8.90954400E-04  2.23631725E-02 -1.85864410E-02
 -5.56521435E-03 -1.41230621E-04  4.55174275E-02  3.65110428E-05 -1.81603926E-03
  1.37661524E-01 -1.34676422E-01 -1.88666245E-02 -1.80667711E-02 -1.75549815E-01
  9.52591594E-02 -1.20825655E-03  1.23456050E-02 -1.34570662E-01  6.69151045E-02
 -8.83558830E-04  1.78822049E-02 -1.68918540E-02  1.09664855E-02 -1.30624588E-04
  4.64467160E-02  1.70436881E-04  1.77240144E-03  1.67305000E-01  1.08173587E-01
 -1.87324980E-01 -1.69911866E-01  1.10636193E-01 -1.55008911E-02 -2.29924722E-03
  1.28097281E-01  4.98961513E-02 -6.88115373E-03 -1.02662681E-03  3.43207023E-02
 -7.00818358E-02  1.06289907E-02  1.61189266E-03 -3.28390470E-02  5.38370339E-05
 -2.29857763E-04  9.79412581E-03 -3.45973701E-03 -5.76956305E-02 -3.70129665E-02
 -4.23434207E-02 -6.35010045E-02 -8.15236197E-02  1.64234264E-01 -4.25848895E-02
 -3.95994880E-02 -5.48914776E-02 -7.10289380E-02  2.07539288E-01  1.52865229E-02
 -6.04907703E-02 -3.67357113E-02 -4.01907848E-02 -5.94912137E-02 -6.15150327E-02
 -1.68729940E-01 -9.57280324E-02 -8.54570681E-02 -1.40396023E-01  4.61757855E-03
 -5.72886888E-04  4.70902840E-02 -9.45945321E-02  3.56037018E-03 -4.58378684E-04
  4.08409334E-02  4.11596739E-02 -2.04966251E-03  4.53186977E-05  1.81320903E-01
  6.61136487E-04 -1.18791785E-04  3.09214524E-01 -2.15938044E-02  1.13097771E-01
  1.07595798E-01  1.13581685E-01  1.28542700E-01 -4.32234162E-04 -9.20220874E-02
  8.95939035E-02  6.47929357E-02 -3.55808327E-04 -7.77693034E-02  6.53275948E-02
 -1.03699301E-01 -8.90979123E-05  3.55349927E-02  8.39202644E-04 -4.15098810E-05
 -1.52081145E-01  2.07697874E-01  1.07122066E-01  1.01909125E-01  1.11292020E-01
 -1.46415008E-01 -4.97093584E-04 -8.67970896E-02  8.99332127E-02 -7.90986638E-02
 -4.00829089E-04 -7.30401960E-02  7.07159419E-02  9.37861489E-02 -9.13251204E-05
  3.40019044E-02  9.10155874E-04  4.63421198E-05 -1.98686018E-01 -1.74510889E-01
 -9.61415859E-03 -8.56200840E-03 -5.18137507E-03 -4.17378063E-02 -3.61255954E-04
  8.39807743E-03 -3.45484924E-03 -1.55802956E-02 -1.57699775E-04  2.24939095E-03
  1.12861875E-03 -4.11274955E-02  2.53206597E-04  8.11140177E-03 -1.17555457E-05
 -2.01206278E-03  1.29364359E-02  1.47694504E-01  3.76302953E-02  1.41111815E-02
 -1.24411455E-02  1.03411276E-01 -3.42020663E-02  3.31928988E-02 -7.59864851E-02
 -2.80073751E-02  1.81865141E-02 -1.87334559E-01 -5.54224454E-02 -2.58726965E-03
  2.92443577E-02  1.12243689E-02 -1.00873183E-02  8.41563740E-02 -2.67750700E-02
 -2.90237294E-02  5.20011010E-03  4.52649093E-03  1.58552832E-02  4.27590998E-01
 -1.47617076E-04 -3.17764485E-03  6.91688429E-03  1.86900709E-01 -1.04991511E-04
 -3.55907085E-03 -4.23964670E-03 -1.29513389E-01  7.04308080E-05 -2.52434664E-02
  5.29790580E-04  1.22481845E-02  2.07600198E-02  2.02736062E-01  7.95059811E-02
  7.46760929E-02 -1.20854019E-01  1.62090848E-01 -6.14985482E-03 -6.84876084E-02
 -6.60884122E-02  8.14962234E-02 -3.97305727E-03 -8.32849181E-02 -1.60696180E-02
 -2.54771720E-02 -2.57434440E-04 -1.73737211E-01  5.28165233E-03 -9.75434246E-03
 -3.96198516E-02 -3.18223157E-01 -8.78726573E-02 -8.25590958E-02  1.34665427E-01
  1.56835594E-01  6.06941649E-03  7.66677280E-02  7.17741023E-02  7.72631183E-02
  3.92187683E-03  8.92274422E-02  1.11329438E-02 -3.96672006E-02  3.61844774E-04
  1.56339470E-01 -6.26066427E-03 -9.49053749E-03 -2.58620451E-02 -3.19303601E-01
  2.45637106E-04  2.18762186E-04  2.45506075E-04  2.95652154E-03 -1.10061391E-02
 -2.17993966E-04  1.39826447E-04  1.14456015E-03 -4.47816272E-03 -6.17120217E-05
 -1.08282731E-04 -5.96838067E-04  9.94329365E-03 -4.14402420E-04  3.89628599E-03
 -2.57676012E-02 -4.86823925E-04 -4.61789800E-03  1.70718600E-02  2.42365237E-03
 -6.22259364E-03 -9.54162644E-03  7.42674608E-03  1.40014387E-02 -7.43026230E-05
  3.74543971E-04  2.37607111E-04  5.93703439E-03 -1.65353120E-03  4.00301198E-02
 -1.67782380E-02 -2.74198205E-03  6.09378613E-03  3.06234049E-03 -1.52799797E-02
  1.79147350E-02 -1.58186890E-04 -1.37750042E-04 -4.47318862E-04 -1.15454364E-02
 -5.38861195E-03  9.62784474E-05 -2.05588173E-04 -5.13048962E-03 -3.76120950E-03
  1.04756326E-04  1.12243220E-04  3.31612927E-03  2.33099335E-03  7.02645178E-04
  1.91090292E-02  4.67254816E-01 -5.25320034E-04 -5.56275208E-03 -2.70936716E-03
 -2.54613012E-03  3.51549945E-03 -3.80188697E-03 -2.27066398E-01  2.41989338E-03
  1.89224967E-03 -1.72770854E-03 -1.44669888E-01  2.72393489E-03  4.92713878E-05
  1.14211312E-03 -2.00795104E-02  2.94915243E-03  2.27258043E-01 -4.01256302E-01
  1.65434139E-04  7.50446594E-03  2.96489903E-03  2.78686642E-03 -3.82543506E-03
 -3.69301050E-03  2.23760849E-01 -2.67045975E-03 -1.99303039E-03 -1.63315995E-03
  1.42475667E-01 -2.90399449E-03  1.59426256E-04  1.51733760E-03  2.11489274E-02
 -2.46005115E-03 -2.63733846E-01 -3.80143517E-01  1.32383000E-03  7.32391797E-03
  1.76559696E-01  1.55353528E-01  8.23678533E-02 -3.36922845E-03  3.47667451E-04
 -1.67695933E-01  5.55898830E-02 -1.38541392E-03  1.74673213E-04 -2.69773290E-02
 -3.46900461E-02  3.77761304E-03  8.77874773E-04 -1.51548336E-03  7.60704752E-04
 -1.05924056E-04 -3.21035962E-02  1.15458487E-02  2.58089927E-02  1.28633635E-02
  4.04992385E-02  7.20861112E-02  1.17597871E-01 -1.12024031E-01  5.22146530E-02
  2.15734351E-02  3.22382239E-02  5.43694570E-02 -1.69463770E-01 -5.25768611E-03
  1.98771516E-02  1.08861146E-02  4.23624528E-02  6.89118963E-02  9.87318265E-02
  1.28468146E-01 -1.17367873E-01 -1.00559637E-01  7.42452741E-02  1.76410133E-02
 -8.29634468E-04  7.68598825E-02  2.35121218E-02  6.14050434E-03 -5.27581245E-04
  8.54020521E-02 -2.51646619E-02 -6.19216772E-03 -6.62569066E-05  5.86691453E-01
 -1.39684699E-03  2.17214214E-05 -5.84940705E-02  1.15060385E-02  8.83386842E-02
  8.26608637E-02 -5.08767840E-02  6.84735546E-02 -7.94633676E-04 -9.42194236E-02
 -1.92226382E-02  1.54761827E-02 -5.21467656E-04 -5.55627115E-02  5.29667756E-02
 -1.41651128E-01 -3.42127406E-04  2.22880214E-01  6.22395133E-04 -2.94968237E-03
  7.75286917E-02 -2.95253220E-02  7.88506708E-02  7.38113165E-02 -4.53441910E-02
 -4.74401632E-02 -8.23058602E-04 -8.47275420E-02 -1.48937401E-02 -5.92889510E-03
 -5.34405600E-04 -4.40954644E-02  6.68859960E-02  1.33267789E-01 -3.57933686E-04
  2.41709356E-01  1.00631427E-03  3.03726681E-03  8.51797792E-02 -1.88098355E-02
 -2.27516036E-04 -1.71672553E-04 -3.13912383E-03 -2.02544227E-02 -9.68470452E-05
 -2.46636418E-04 -1.83970670E-03 -3.51454758E-02 -3.61651656E-05  1.23738635E-03
  6.47100873E-05 -5.06429516E-02  6.14901670E-05  4.89954398E-02 -3.97761947E-04
 -9.86352829E-03  3.53718676E-02  1.92100860E-01  2.92945045E-03 -2.16016113E-02
 -1.73447023E-02  1.27013293E-01 -1.16553829E-01  5.17486807E-02 -1.81578261E-02
  3.42211304E-02  3.62020133E-02 -2.21213243E-01 -1.88313670E-01 -6.60354383E-03
  1.34476431E-03 -1.77958592E-02 -1.35853736E-02  1.03788798E-01 -1.02359667E-01
 -4.48823293E-02 -5.20234645E-04 -3.89206276E-04 -3.68828544E-03 -1.15226418E-01
 -9.43732912E-05  3.15182656E-04  1.58511422E-03  3.48684239E-02 -5.15127085E-05
  8.86992801E-04  3.59350088E-03  9.87161628E-02  3.69457360E-05  9.78715730E-03
  7.15496952E-06 -5.35638171E-04  2.25525677E-02  2.61070139E-01 -2.89209598E-02
 -2.63446166E-02 -4.08192821E-02 -1.06398093E-01 -7.56499476E-04  4.10843406E-02
 -1.51089414E-02 -6.17855237E-02 -3.87474036E-04  7.21320798E-02  4.34002779E-03
 -4.03838845E-02  5.53534979E-04  1.48948518E-01 -4.47141577E-04 -6.21965016E-04
  5.08207445E-01 -4.00712772E-02  2.87361479E-02  2.61819797E-02  2.53736055E-02
 -1.03549794E-01  5.64223763E-04 -4.07017594E-02  7.00707799E-03 -5.92992102E-02
  2.91629772E-04 -6.92094633E-02 -1.68121546E-03 -4.04713710E-02 -4.08076149E-04
 -1.33942989E-01  4.23909773E-04 -6.91347352E-04 -5.01089791E-01  4.97055713E-02
 -1.70392270E-03 -8.76610562E-04 -3.38554259E-02  1.77688800E-03 -9.70158035E-05
 -1.20885498E-02 -1.28218005E-02  3.76683981E-04 -6.76141795E-05  1.28179342E-02
 -9.08792021E-03 -1.19924926E-03 -5.21451927E-04 -4.73642895E-02  1.38202563E-03
  1.52615688E-04  8.48771767E-02 -3.11100087E-03 -4.54088830E-02 -1.38481497E-02
  1.23477837E-02  5.20121413E-02 -1.11870011E-03  7.62164661E-04 -4.35281954E-02
 -1.31611111E-02  9.95242554E-03  5.78910638E-02  6.73045739E-04 -6.97895580E-05
 -4.50616616E-02 -1.39071485E-02  1.25224315E-02  5.46766190E-02 -1.53297943E-03
 -1.81596976E-03 -1.09976997E-01 -9.46304651E-02 -2.73233274E-01  1.20285791E-02
  3.25078902E-03  1.46259553E-01 -5.61742372E-02  2.74847605E-03  1.13224297E-03
 -1.41007695E-02  1.28662726E-01 -5.99828290E-03 -1.30165146E-03  4.46337923E-02
  3.63278964E-03 -1.47674035E-04 -8.92086178E-02  9.55817686E-03  5.82891478E-02
  5.28116286E-02 -1.67967473E-01  1.19352344E-01  1.30437710E-03 -8.27783240E-02
 -7.26368306E-02  4.79960539E-02  5.87135645E-04 -9.55157277E-02  7.13099795E-02
 -2.92409394E-02 -4.14695620E-04 -2.13088548E-01  9.95958563E-04  4.17739831E-03
 -2.66904022E-01 -4.17976137E-01  5.88923270E-02  5.33578639E-02 -1.77341939E-01
 -1.05352258E-01  1.27952236E-03 -8.37320725E-02 -7.64431225E-02 -4.20894439E-02
  5.75968373E-04 -9.69858911E-02  7.31597988E-02  2.30183019E-02 -3.75253229E-04
 -2.14463316E-01  5.51604810E-04 -4.37231091E-03 -1.93357851E-01  4.60040166E-01
  3.49329706E-04  2.89728119E-04 -8.01658522E-05 -1.01740942E-04 -3.73029016E-02
 -3.81082914E-04  8.98879869E-05 -3.97293800E-05 -1.85085687E-02  1.11976417E-04
  5.40109340E-04  5.26470260E-05 -4.47365860E-02  6.90134890E-03  1.48633640E-01
  3.25366677E-02  2.23402043E-03 -1.98248819E-04 -3.70787766E-02  4.82661309E-03
  2.34373458E-02 -2.44894873E-01  5.45307312E-02 -1.30063605E-01 -3.00071645E-03
  2.95473468E-04  1.95345710E-03 -1.69411019E-02 -5.71638283E-03 -7.19213080E-02
  3.88660750E-02 -5.36343226E-03 -2.45486018E-02  2.66576845E-01 -4.86250390E-02
 -1.38395938E-01  1.79995382E-04  1.95745861E-04  2.22917541E-03 -6.66844904E-05
  2.87380664E-01 -6.35079814E-04  2.19349319E-04 -2.10898268E-05  1.23546169E-01
  5.15264822E-04 -1.22022343E-03  2.22845290E-05 -5.56023581E-02  1.83849823E-03
  4.36531949E-01 -1.70100236E-02  1.27768027E-03 -1.14770466E-04  3.03751619E-05
  2.97836295E-05 -7.54764083E-05 -5.98444590E-04  7.99876274E-02 -2.20808178E-05
  4.90649918E-05 -4.42930546E-04  3.72729719E-02  6.08402406E-04  8.91423771E-04
 -5.60058067E-04 -1.96842422E-02  4.62161973E-03  2.18185876E-01  3.88189030E-01
  3.11248666E-03  3.72171799E-03 -1.02319217E-05 -7.03775184E-06  1.35608511E-04
  5.42059872E-04  7.18774144E-02  3.83554166E-05  1.53731893E-04  4.06728629E-04
  3.37647845E-02  6.43743031E-04  8.11075561E-04  5.51576677E-04 -1.04359269E-02
  4.77632570E-03  1.74009072E-01 -4.23631982E-01  2.45837639E-03 -4.31425688E-03
 -6.92837360E-04 -5.49098255E-04 -2.82966769E-03  1.98510105E-03 -3.61658319E-05
  1.02098958E-03 -1.08462923E-03 -3.53008020E-03 -1.08131578E-05  7.35184390E-04
  1.10964719E-03  6.74484199E-03  1.96447620E-05  5.65631584E-03 -3.32014954E-05
 -1.15145259E-03  3.25978488E-03  8.33755956E-03 -5.47372314E-03 -4.58535845E-03
  7.47343697E-04  7.52149490E-03 -1.50422299E-02  4.31985965E-03  9.18784698E-03
  7.52432767E-03 -1.50773452E-03 -1.22150134E-02 -1.93631044E-02 -5.14218066E-04
 -4.44316622E-03 -3.76450086E-03  5.55574617E-04  6.24513954E-03 -1.40206894E-02
 -3.83995648E-03  6.48233525E-04  5.09083380E-04 -7.46855619E-04  2.69822547E-03
 -5.08677516E-05 -6.36937011E-04 -3.87836920E-04 -2.67660002E-03 -2.05688500E-05
 -2.16402815E-04  4.08878753E-05 -1.15677087E-03  7.23803826E-05 -1.61269286E-04
  3.26428446E-06 -5.20649340E-06 -3.86798864E-05  2.51323453E-03 -2.44904323E-03
 -2.17170123E-03 -8.41959562E-03 -1.60028695E-02 -1.68686262E-04  4.73983745E-03
 -2.54584859E-03 -5.38315154E-03 -5.31652421E-05  3.12117701E-03  8.32749761E-03
  1.52515279E-02  1.48515423E-04 -6.08827001E-01 -1.39522447E-03  1.00114674E-03
  1.76800302E-01  2.97124140E-01  1.68049223E-03  1.49063316E-03  7.16124369E-03
 -1.42564106E-02 -1.00886758E-05 -3.39567861E-03  2.07097025E-03 -4.88017073E-03
 -1.69454896E-06 -2.00604676E-03 -7.02571204E-03  1.38959180E-02 -5.87852258E-06
  6.19467219E-01  1.04618791E-03  7.74754752E-04 -1.22998167E-01  3.28376672E-01
  3.62845485E-06  2.84025570E-06  7.67858854E-07 -1.81697688E-04  1.20754570E-03
 -2.61124630E-06  5.89665793E-06  6.98137294E-05 -2.11238041E-04  2.91516751E-06
  8.50538776E-06  2.44733687E-04 -8.32011709E-04  1.44363972E-07  4.28401573E-04
 -1.79705924E-05 -1.97695042E-05 -1.62031507E-04  2.43742341E-03  6.35548467E-04
 -2.63931364E-03 -7.42527727E-05  1.03316369E-03 -1.24018732E-03 -2.80956237E-04
 -6.32469992E-05  3.00190852E-04  1.63717954E-05  1.86949939E-04  6.64116099E-04
 -2.12840139E-03 -5.79422635E-04  2.33969491E-03  6.41950660E-05 -9.40961893E-04
 -1.04399798E-03 -2.17836475E-06 -1.62790216E-06  7.25279836E-06 -2.13133277E-05
  9.01555870E-04  9.86370912E-07  3.08549274E-06  4.50315379E-06  3.63792622E-04
  2.78879789E-06 -4.07125354E-06  1.86754488E-05 -1.54891650E-03 -2.13168226E-07
 -1.91802125E-04  4.03926311E-04 -1.94732210E-06 -3.21103614E-05  2.26929180E-05
  2.01123753E-05 -2.96282024E-05  1.10146485E-04 -1.08517202E-02 -4.31290064E-05
 -9.88737182E-06  3.74666941E-05 -3.43859656E-03 -3.55367053E-05  2.70229386E-05
 -9.53624379E-05  1.09218913E-02 -5.34089874E-04  6.18002015E-01  3.53303837E-01
  1.26116736E-03 -2.94180451E-04 -2.04121918E-05 -1.80914990E-05  5.31674442E-05
  9.02112807E-05  1.39175282E-02  3.90957716E-05  1.75232727E-05  3.13254017E-05
  4.37797299E-03  3.23644532E-05 -4.61638353E-05 -7.92698643E-05 -1.33148298E-02
  3.72780682E-04 -5.70169093E-01  4.09121621E-01 -1.20533399E-03 -9.87233449E-05
 -4.79415049E-02 -3.79608853E-02 -1.49443300E-01  2.00656011E-03 -4.53388122E-03
  6.60654242E-02 -5.25175572E-02  6.64291411E-04 -4.70759416E-03  1.06005546E-02
  4.65008638E-02 -7.05113090E-04 -2.66951098E-03 -1.54495964E-02  1.53612833E-02
  5.52601133E-03  2.92680616E-02 -3.52632968E-03 -2.30986979E-02 -3.87206832E-04
  1.93474644E-03 -1.10735373E-02 -2.92676635E-02  2.77442311E-02 -2.79309457E-02
 -6.15973742E-03  1.18920728E-03  1.26810345E-02  6.15498870E-02 -7.61766786E-03
 -2.83327314E-02 -9.63880456E-03 -7.81409101E-04  3.28690126E-02 -3.36576005E-02
 -7.06431943E-02  5.56429350E-02  4.30119171E-02 -2.87640937E-02  1.42169124E-03
  8.07980384E-03 -5.31944670E-02 -9.74883088E-03  4.19427089E-04  5.45394177E-04
 -2.64109190E-02  3.67040802E-03  1.27936273E-05  3.00086002E-02 -8.09693527E-02
  1.79402498E-02 -8.51545167E-04 -4.54008520E-03  5.02554270E-04 -3.28350760E-02
 -2.90404919E-02  1.43250746E-02 -1.05811671E-01 -4.07481327E-02  5.70437083E-02
  2.12571457E-03 -2.62713079E-02 -1.16204821E-02  4.07992943E-02 -1.13961909E-02
  9.29339551E-02  3.28035667E-02  5.49097129E-01 -1.60658900E-01  5.97524972E-02
 -3.01276828E-01 -1.61632911E-01 -3.37063634E-02 -2.98114403E-02  2.84456468E-02
  1.03619664E-01 -4.20059521E-02  5.86135660E-02  5.81771689E-03  2.57904202E-02
 -1.20010116E-02  4.18388960E-02 -2.39897519E-02 -9.09412025E-02  3.39942075E-02
  5.36394541E-01 -1.69215695E-01 -4.38300755E-02 -2.52705707E-01  2.15005622E-01
 -1.32259947E-02 -1.04732944E-02 -4.08931523E-02  6.02288295E-04  1.39790236E-02
  1.83618268E-02 -1.44106313E-02  1.96463808E-04  1.59593386E-02  2.86193881E-03
  1.26876491E-02 -2.27944359E-04  1.08854537E-02 -8.36025933E-03 -5.68788427E-02
 -1.98548327E-02  6.26907493E-03 -7.68482319E-04 -1.57732204E-02 -1.73696482E-02
 -4.69136206E-03  8.08240279E-02 -3.10429355E-02  8.31111169E-02 -7.83326533E-03
 -2.78292126E-03 -2.45432435E-04  9.04814805E-03  1.96502525E-02  4.14848028E-02
  3.77057178E-03  1.63226703E-02  4.84718004E-03 -8.29257797E-02  1.08874668E-02
  6.03220323E-02  1.55828787E-02  1.20348294E-02 -7.40935912E-03  3.60139056E-04
 -3.66047137E-02 -1.48511610E-02 -2.41886364E-03  1.09921049E-04 -4.21781211E-03
 -7.34215736E-03  7.02586772E-04  2.63405717E-05 -1.06009995E-01 -2.33307416E-02
 -6.94187131E-02  3.29934703E-03 -1.21355671E-03  1.36513697E-04 -9.25721210E-03
 -8.18639004E-03  5.13386644E-03 -2.96720385E-02  1.45198158E-01  1.60826428E-02
  9.09496012E-04 -7.29187623E-03  4.12236526E-02  1.13905884E-02 -4.21079657E-03
  2.61175894E-02 -1.16895565E-01  1.47698680E-01  5.92085366E-01 -2.21121029E-01
 -8.22415990E-02 -4.58097260E-02 -9.46895452E-03 -8.37372577E-03  8.95205873E-03
  2.89854789E-02  1.49978657E-01  1.64648566E-02  1.89646731E-03  7.13967069E-03
  4.26672817E-02  1.16475868E-02 -7.61893264E-03 -2.54991674E-02 -1.21424894E-01
  1.44668022E-01  6.23004329E-01  1.62977904E-01 -6.88944698E-02  6.05544224E-02
  7.80322367E-04  5.98733705E-04  3.08362096E-03  7.70258308E-05  1.93484261E-02
 -9.99412690E-04  8.36592046E-04 -9.28310657E-08  5.11127308E-02 -5.19039475E-04
 -4.69656008E-04 -9.67228751E-05 -1.94295900E-02 -8.76575324E-03 -1.01175491E-01
 -4.72054560E-02 -3.84842466E-03  3.97090522E-04 -6.18017490E-02 -5.17588396E-02
  8.23731051E-03 -3.96245721E-02 -1.77030262E-02  9.17429792E-02 -3.78442355E-03
 -3.44967350E-03  4.12535653E-04 -3.36858952E-03  3.75832727E-03  2.40131493E-02
  6.83776119E-02  5.64722068E-02 -9.38390337E-03  4.04640692E-02  1.36671128E-02
  9.96782957E-02 -1.67213157E-04 -1.31455880E-04  2.73502400E-03 -1.74538870E-04
  4.42953902E-01  1.95911413E-04  4.51246709E-04 -3.68164205E-05  1.34634307E-01
  1.22870188E-04 -3.59928433E-04 -3.54089812E-06 -3.10672545E-01 -1.43990335E-03
  1.84970021E-01 -9.67417394E-03  5.56368680E-04 -1.06970937E-04 -1.71762465E-04
 -1.50116152E-04 -4.87811555E-04 -9.20158075E-04  3.57986608E-01  3.10374196E-04
 -1.00517992E-04 -1.68903154E-04  8.90127455E-02  2.63183161E-04  4.53555992E-04
  7.33320055E-04 -2.74938966E-01  1.39165949E-03 -2.47995280E-01 -2.33552362E-01
 -3.52932182E-03  1.50142161E-03 -1.10319912E-04 -9.64353883E-05 -6.86546180E-04
  9.43319360E-04  3.53000760E-01  1.97464983E-04 -1.46117800E-04  1.82168318E-04
  8.77972408E-02  1.77182238E-04  5.98579841E-04 -7.47727586E-04 -2.70987149E-01
  1.63498367E-03 -2.33917822E-01  2.45517308E-01 -4.30233610E-03 -1.22084091E-03
 -8.23441014E-02 -6.34701274E-02 -3.24385577E-01 -6.49548087E-05 -2.20650434E-03
  1.36659279E-01 -9.94978095E-02 -2.17743059E-03 -7.62854747E-04  3.17490474E-02
  8.23666943E-02 -3.50584556E-03 -9.79250382E-05 -7.92650422E-03  1.43484127E-03
 -4.71495127E-04  4.02758146E-03  1.02832945E-02 -9.84369627E-04  7.15580308E-03
 -1.44151067E-02  2.15990227E-02 -5.34492284E-02  1.02316596E-01  1.22449114E-02
  9.59478741E-03 -2.24792409E-02  3.56470779E-02  1.14136893E-01  9.71934218E-03
 -2.67206472E-03  7.47761372E-03 -1.29473212E-02  2.26152671E-02 -4.00991160E-02
 -1.07086395E-01  7.21976606E-03  6.43388460E-03 -1.26668528E-01  4.96355031E-03
  3.89337257E-03 -1.81868489E-02 -5.39160030E-03 -5.26906422E-04  1.03581374E-03
 -2.88798486E-03 -1.12548941E-01  4.91865982E-03 -2.18877901E-03  3.54157285E-03
  1.59131677E-03 -8.70098772E-05  3.23560419E-02 -3.95067812E-03  2.80860686E-02
  2.44229089E-02  2.66784187E-01  1.82113405E-01  2.09645156E-03 -5.34155050E-02
  5.69625335E-02  3.35560683E-02  4.80995865E-04 -4.24788099E-02 -2.07012120E-01
 -1.43209416E-01 -1.56159803E-03  7.84604927E-02 -2.43967087E-03 -1.37441939E-03
  3.76010224E-01 -3.11538044E-01  2.81494312E-02  2.44782472E-02  2.48398985E-01
 -2.08302696E-01  2.06630577E-03 -5.34500136E-02  5.36695257E-02 -3.90496796E-02
  4.73906719E-04 -4.28039628E-02 -1.93519967E-01  1.63982961E-01 -1.53683357E-03
  8.05356010E-02 -2.34497410E-03  1.49485637E-03  4.19119084E-01  2.27878780E-01
  1.72046873E-04  1.29732849E-04  7.42637934E-04 -1.61448325E-03  1.08734248E-02
 -2.35254347E-04  1.96715462E-04 -2.47997876E-04  4.18858064E-03 -8.80362975E-05
 -1.16523782E-04  1.47489828E-03 -1.04243633E-02 -1.97974081E-04  5.43495209E-04
 -4.91241907E-04 -2.04247275E-04 -1.01667239E-03 -1.75619289E-02 -4.25590715E-03
  4.93501861E-03  6.85689911E-04 -4.97384203E-01 -3.41570280E-01  1.55045464E-03
  5.84726325E-05 -4.85521594E-04 -3.14326483E-03 -3.37931005E-02  5.87289271E-01
  1.65864404E-02  4.35690383E-03 -4.59986282E-03  2.24323616E-03  5.40841002E-01
 -2.77266634E-01 -4.75664808E-05 -3.95162708E-05  7.02354649E-04 -3.84262622E-04
  2.28023017E-02  9.78152659E-05  1.51308767E-04 -1.90767958E-04  5.40548043E-03
  1.72431347E-05  6.51235315E-05  2.21985875E-04 -1.54320967E-02 -1.88744620E-04
  4.03085858E-03  7.55638271E-04 -4.80221828E-05 -4.10740604E-04 -4.27393545E-05
 -3.73330466E-05  1.63334500E-03  2.35572671E-04  4.82232355E-03  6.79374642E-05
  3.23420385E-04  1.24816570E-04  9.74126773E-04 -2.04073256E-04 -1.81759307E-03
 -3.67350794E-04 -1.44247908E-03 -5.10299444E-04 -4.61870462E-03  3.43402884E-03
 -1.07483243E-03 -2.23396994E-04 -4.71492961E-05 -4.04625332E-05 -1.89270658E-03
  8.54442418E-04  1.05877141E-02  9.53692771E-05 -3.68323353E-04  1.93146501E-04
  2.13091102E-03  2.85938388E-04  1.92070712E-03 -8.19974154E-04 -6.72134670E-03
  3.82908317E-04 -1.54732957E-03  1.34340335E-03 -9.08106905E-04 -7.53700653E-04
 -2.61968323E-03 -1.88359394E-03 -2.07340023E-02 -8.03239898E-03 -2.20071154E-04
  1.17934682E-03 -4.51781085E-03 -5.99521170E-03 -1.88497506E-05  2.35307588E-03
  5.53085383E-03  1.17241350E-02  6.19693152E-05  1.04632211E-02 -2.42894820E-04
 -2.30217317E-03  8.97573978E-03  1.72654466E-02 -2.73616373E-02 -1.25753435E-02
  6.81305441E-03  1.44854405E-01 -1.22735483E-01  1.72708872E-02  1.29616025E-02
  1.30165140E-02  1.70904607E-03 -2.39846139E-01 -1.28339338E-01 -4.68549258E-04
 -2.45654829E-02 -1.07616120E-02  6.49661428E-03  1.18560886E-01 -1.15590133E-01
 -1.61678998E-02  9.56403666E-04  8.78063238E-04 -1.75501376E-02  2.18088935E-01
  2.85029328E-04 -3.03784765E-03 -3.52397754E-03  9.76095055E-02  7.33536952E-05
 -7.54961616E-04  5.43503773E-03  3.09164838E-02 -3.01622012E-04  1.14138912E-02
  3.25369212E-04  1.20512820E-04  1.14468563E-02  1.71504383E-01  3.63662085E-02
  3.12233515E-02 -2.86983916E-01  1.00232851E-01 -8.71494855E-04 -6.55237882E-02
 -3.81053573E-02 -1.99756299E-03 -1.95035039E-04 -4.49784449E-02  2.06804926E-01
 -7.90781549E-02  1.02839548E-03  1.95456359E-01  7.12043114E-04 -6.94231195E-04
 -1.51958621E-01  4.86259999E-01 -3.52872009E-02 -3.02956421E-02  2.67134418E-01
  7.44784064E-02  1.53051386E-03  6.41574712E-02  3.34231173E-02 -3.50660349E-03
  3.00855272E-04  4.57053820E-02 -1.87647994E-01 -6.44813631E-02 -1.46433257E-03
 -1.93042281E-01 -9.48941372E-04  2.30613201E-04  2.77652389E-01  4.28734291E-01
  3.96276301E-02  2.75605825E-02  2.65686885E-01  2.47417477E-03  2.29000413E-03
 -6.84975913E-03  4.51840425E-02  4.10105852E-04  1.96574152E-04 -4.09731745E-02
 -2.88331025E-02 -3.49261265E-03 -8.97528462E-04  2.85241617E-02  1.18355892E-03
  1.25772391E-06 -6.48683312E-02  7.50753812E-03  1.88233280E-01  5.16119959E-02
 -8.00461570E-02 -8.74263639E-02  3.97204116E-02 -7.08090863E-02  1.97927072E-01
  5.11352317E-02 -8.75838951E-02 -1.33128895E-01 -1.00165919E-01 -7.08595796E-03
  1.86417159E-01  5.15687982E-02 -7.85484607E-02 -8.88729845E-02  2.91738632E-02
  7.38564483E-02 -5.47570220E-02 -4.23876276E-02  5.49580323E-01 -8.28856890E-03
  8.43965871E-04  1.03971639E-01  1.41055581E-01  8.85336140E-04 -7.83450720E-05
  8.19547267E-03 -1.51591874E-01  8.74279869E-03  3.93478174E-04 -1.20692759E-01
 -3.06536597E-03  2.03844456E-04  8.45306014E-02  1.72886484E-03  1.48456555E-02
  1.26236693E-02  2.47974130E-01  9.03611063E-02 -1.56626021E-03 -3.87565567E-02
  3.11797614E-02  2.18513338E-02 -1.54363694E-04 -2.66918171E-02 -2.05312721E-01
 -1.18804547E-01  8.45546465E-04 -5.82316283E-02  3.50898307E-04  4.33532326E-03
 -2.71557589E-01 -1.33953351E-01  1.20916447E-02  1.02878965E-02  2.61800238E-01
 -9.37537517E-02 -1.28095213E-03 -3.41268987E-02  3.05238550E-02 -2.42721226E-02
 -1.12524393E-04 -2.18316367E-02 -2.06235587E-01  1.22018943E-01  5.88691493E-04
 -8.19589439E-02 -1.85601608E-05 -4.24877830E-03 -2.26723675E-01  2.34245837E-01
 -3.15930651E-05 -1.81276090E-05  2.45202592E-04  5.68358887E-03 -5.53602676E-02
 -5.35251490E-05  5.72409657E-05  2.21334046E-03 -1.63622037E-02  1.46579142E-04
 -2.30109353E-04  3.47595975E-04 -1.19889564E-02  1.40632921E-03  5.69140895E-02
  2.02701405E-02  2.37243762E-04 -5.91131814E-03  7.82723988E-03  6.47118911E-03
 -5.18867901E-03  1.18841360E-01  3.53980702E-02  5.01688260E-02 -3.78758165E-03
 -1.08086588E-03  1.96083537E-03  3.39729841E-03 -2.00100757E-03  1.05618923E-01
 -4.63449453E-03 -5.51560486E-03  3.75849360E-03 -1.23542715E-01 -4.31476682E-02
  4.96266540E-02  2.59154038E-04  1.80284420E-04 -6.95247735E-04 -4.10898942E-03
  1.26864677E-01 -3.57621110E-04 -1.30341256E-04 -9.72083898E-04  9.80922785E-03
  1.59099782E-04  3.64094235E-04 -2.06363511E-05 -4.64816480E-02  8.72901939E-04
 -9.02095002E-02  2.61801784E-01 -2.99628063E-04  5.37197245E-04 -4.24375337E-04
 -3.50670318E-04  9.09684691E-04 -3.23365547E-03 -4.77944777E-01  8.70074342E-04
 -3.08850909E-05  1.52060244E-07 -1.85107613E-02  8.80929732E-04 -6.06345148E-04
  2.07887800E-03  3.70782614E-01 -6.14239901E-04 -1.92447457E-01  4.09366562E-01
 -2.09745151E-03 -1.67946027E-03  2.54964527E-04  2.10434560E-04 -9.48726985E-04
 -1.69033457E-03  4.87926466E-01 -4.43063718E-04  8.11247625E-05  1.09077677E-04
  2.14248629E-02 -5.89706373E-04  2.28943518E-04  7.90746372E-04 -4.05802663E-01
  6.43690130E-04  2.13437952E-01  1.81008252E-01  1.87341753E-03 -2.94145401E-03
  2.51239180E-04  1.54869680E-04 -1.08120557E-04  2.88030575E-03  1.30156556E-01
  1.33980346E-05  2.01227848E-04  9.10553338E-04  2.58588667E-02 -7.21441349E-04
  9.72066950E-04  2.07130457E-04  5.03711416E-02 -9.70410138E-03 -1.33790283E-01
 -4.51778982E-02 -4.75052460E-03 -2.30460467E-03  7.26558551E-02 -4.71051969E-03
 -4.10665314E-02 -4.02785410E-01 -5.22583766E-02 -1.86830722E-01  5.13828017E-03
 -7.95031585E-04 -3.26820487E-03 -3.11537708E-02  6.94022246E-03 -2.51134237E-01
 -7.49081235E-02  6.03157680E-03  4.20317265E-02  4.37742464E-01  4.05598859E-02
 -1.64573399E-01 -1.15087335E-03 -7.72229486E-04  9.48090829E-04 -2.21390646E-03
 -3.92908120E-01  1.35433741E-03  2.52403148E-07 -5.02463353E-04 -2.07655139E-02
 -8.25222441E-04 -1.24613862E-03  1.69193968E-04  1.46236046E-01 -4.85620103E-03
  4.03058927E-01  6.12900095E-02  1.36403213E-03  2.85785453E-04  2.60031560E-04
  2.13130203E-04 -1.16684403E-03  2.50279552E-03 -1.49788404E-01 -7.37546089E-04
 -1.43746454E-04  2.40349861E-04 -5.68303453E-03 -5.21917385E-04  1.87272588E-03
 -2.12120656E-03  1.68065383E-01  5.74409918E-04 -7.55791665E-02 -2.62918751E-01
 -8.65750732E-04 -2.23738632E-03  4.64890966E-04  3.79822488E-04 -2.05756023E-03
 -5.66940080E-03  1.56979497E-01 -1.09720921E-03 -9.80022674E-05 -1.62082024E-04
 -1.80333444E-03 -1.20995702E-03  2.12577708E-03  3.93346629E-03 -7.70603338E-02
  1.74557133E-03  7.50110725E-02  4.29055848E-01  1.70543659E-03 -4.69324137E-04
 -1.39755844E-03 -8.50387727E-04 -2.63285341E-03 -1.49033067E-01 -4.30464201E-04
  6.28576328E-04 -1.00343402E-03 -9.49530688E-03 -1.77536633E-04  2.80945374E-03
 -5.07793911E-03 -7.37706016E-02  3.08154623E-04  3.71265860E-02 -1.46969993E-04
 -7.72494748E-03  2.92518747E-02  1.11194313E-01  5.94295853E-02  4.26924830E-05
 -3.51333205E-02 -1.84410962E-01  1.91462596E-01  6.62775394E-02 -1.21325882E-01
 -2.02495810E-04  7.29162526E-02  3.31069342E-01  9.30339472E-02 -7.92884887E-03
  4.54079643E-02 -1.89107432E-04 -2.69530667E-02 -1.45650353E-01  2.03037569E-01
 -5.99303254E-02  4.40482505E-03  2.78223220E-03  1.24022412E-02  3.51031701E-01
 -1.37924752E-03 -4.60850030E-03  3.90788829E-03  7.79336461E-02  1.02223299E-05
  3.78601025E-03 -7.34914387E-04 -9.58989687E-02  6.50788194E-04  1.91306596E-02
  2.29064106E-03  3.27870348E-03 -1.38698877E-02 -1.42765118E-01 -1.50675226E-02
 -1.23701623E-02  1.55223095E-01  3.79145441E-01 -6.36306494E-03  4.69203021E-02
 -5.62802652E-03 -2.20877139E-02  3.38284509E-04 -2.32441036E-02 -1.77751979E-01
 -2.31676148E-01  5.39780570E-03  1.32270146E-01 -1.86835493E-03  3.40686965E-04
  2.52535669E-01  1.97424319E-01  1.32212032E-02  1.09118028E-02 -9.62600975E-02
  4.30017704E-01  6.55829489E-03 -4.19683065E-02  3.39288192E-03 -2.28543329E-02
 -3.74964425E-04  3.21671189E-02  1.34322600E-01 -2.70912987E-01 -5.18566427E-03
 -1.50453530E-01  1.72035265E-03  2.75459094E-03 -2.22034240E-01  2.45475529E-01
 -2.52830751E-02 -1.56464216E-02 -3.82569294E-01 -3.29341847E-01 -2.15401378E-02
  3.63244879E-02 -3.99876260E-02 -6.33810466E-02 -2.96288294E-03  1.68222874E-02
  5.71920632E-02  4.20986861E-02  3.85345305E-03  1.92792967E-01  3.72860110E-03
 -1.70198781E-02 -4.02368029E-02  1.90649766E-01 -3.95322308E-02 -5.18359071E-02
  1.02749148E-02 -3.70626150E-02  2.78864178E-02  2.63944272E-01 -2.74012421E-03
  5.15909135E-02  2.78333062E-02  3.26874557E-01 -2.55324381E-02  1.07911775E-03
 -4.44607517E-02 -4.99902223E-02  1.22175862E-02 -1.35786592E-02  5.95420053E-02
 -2.61167999E-01  2.52507198E-02  1.41158987E-02  1.87191997E-01 -5.46202816E-02
 -6.30148214E-03  5.47623986E-03  3.23315899E-02 -2.35519051E-02  2.42544527E-04
  5.17026234E-02 -7.32687574E-02  5.10389244E-02  3.50503720E-03  4.56504483E-01
  1.79203078E-02  2.93400181E-04 -1.01557792E-01  3.60704050E-02  9.72690378E-03
  8.00665678E-03 -2.70887517E-02 -3.45642901E-01 -2.35092663E-03 -2.80106950E-02
  1.01253326E-02  2.61930247E-02  1.92145045E-04  5.53787398E-02  4.70772748E-02
  1.85292647E-01  3.40831146E-03 -2.21087111E-01 -2.54925971E-03 -6.60772787E-03
 -1.84322923E-01 -1.87586481E-02 -1.43610026E-02 -1.10768023E-02  2.87451977E-01
  1.32621176E-01  5.64950310E-03  3.83178367E-02 -2.37492477E-02 -3.79324045E-03
 -7.52257304E-04  7.89416874E-02 -2.49108650E-01 -2.54802174E-02 -3.23304815E-03
 -1.80735218E-01 -5.81849688E-04  8.56625953E-03 -1.27858702E-01 -3.60790212E-02
 -1.81309579E-02 -1.12796847E-02 -3.57788677E-01  4.64027666E-01 -2.48235945E-02
  3.56441008E-02 -2.17507852E-02  7.44776556E-02 -2.72016571E-03  1.05877117E-03
  4.87323636E-02 -4.38646238E-02  3.67208662E-03 -8.90019711E-02  7.16221477E-03
  4.08391218E-02 -1.97786114E-01 -2.57722877E-01  1.93105791E-02  4.40707369E-02
  3.88602814E-03  2.91212931E-01 -1.51521751E-01 -1.03723183E-01  3.95377930E-02
 -9.95162419E-02 -4.78386281E-02 -2.44743462E-01  3.25031098E-01  4.51268211E-02
  1.69066028E-02  2.81772250E-02 -9.60430941E-04  2.42024309E-01 -2.05504845E-01
  6.20472270E-02  8.50523705E-03  4.20410956E-03  1.49976900E-01  3.68458651E-02
 -5.44452153E-03  1.82632770E-02  2.44582196E-02  2.40941684E-02  3.28114498E-04
  3.48168846E-02 -6.73302376E-02 -5.88249864E-02  3.52954006E-03  3.43850531E-01
  1.69585169E-02 -1.70223592E-03 -1.07898120E-01 -1.50878378E-02 -1.53627647E-02
 -1.18175828E-02  2.57205849E-01 -4.75546405E-02  8.52414224E-03  4.20521000E-02
 -3.19856056E-02 -6.88353060E-04 -1.34817144E-03  6.10083287E-02 -2.38642269E-01
 -1.94392785E-02 -5.89980019E-03 -1.16681956E-01 -1.16807317E-03 -7.49790154E-03
 -8.15516172E-02  7.81074875E-02  1.30749400E-02  1.04285626E-02 -1.20369985E-01
  2.69566148E-01 -5.08111515E-03 -3.77349248E-02  2.28578462E-02 -3.13448593E-02
  6.94541784E-04  2.63937051E-02  1.32892618E-01 -1.53050677E-01  5.98982818E-03
 -1.56093932E-01 -1.50517437E-03  6.58734467E-03 -1.30494351E-01  2.84148472E-02
 -1.00926599E-03 -7.18388210E-04 -4.89350493E-02  1.64692686E-03  7.07653468E-01
  5.56957248E-03 -6.26089538E-04  2.90551709E-04  5.90522440E-02 -3.22160903E-03
  3.46017965E-03  5.12520660E-05 -7.99326077E-02 -3.61496067E-02 -2.22535853E-01
 -2.57760255E-01 -3.72340322E-02  1.11121414E-03  2.89520385E-02 -9.22280087E-02
 -5.06408770E-02 -1.99681091E-01 -3.18523801E-01  1.62629044E-01  1.89163892E-02
 -6.79282191E-03 -1.35482868E-02  1.41878806E-03  5.85018309E-02 -3.31526028E-01
  6.43707514E-03  9.98826552E-02  3.21857636E-02  2.43659120E-01  2.59720214E-01
  2.13202588E-01 -1.95308532E-03 -1.16804992E-03  1.51021011E-02 -8.06293462E-05
  1.50395197E-01  4.97530126E-03  2.20950414E-03  6.12448750E-05 -1.58094111E-02
  7.40704661E-04 -4.76818179E-03 -3.06804855E-04 -1.22724048E-01  2.21642220E-02
 -4.36478222E-01  1.42910957E-02 -1.74285273E-02  1.20091184E-03 -1.05894665E-03
 -8.12651639E-04 -6.45937482E-03  4.32530750E-04 -8.03986870E-02  2.76595735E-03
  1.28155390E-03  1.87402808E-04  1.66604968E-02  9.93958982E-04  3.12111056E-03
 -3.32363097E-03  3.00765052E-02 -6.49922244E-03  3.48051580E-02  1.81780666E-01
 -7.63078935E-03  1.03706023E-02 -8.42966568E-04 -6.46008855E-04 -8.46572779E-03
  2.13585408E-03 -2.41568236E-02  2.13238590E-03  1.62891640E-03 -6.73188328E-04
  5.92979007E-03  8.00029471E-04  5.28635667E-03  1.76646671E-03 -2.52252210E-02
 -7.00899055E-03  1.22890998E-02 -1.95757270E-01 -1.00915425E-02 -8.10953085E-03
  8.13446834E-03  1.95287064E-03 -3.67706014E-01 -8.35139907E-02 -4.17480826E-02
  7.55558702E-02  2.56125351E-02 -5.12633694E-03 -1.60670709E-03 -8.04577340E-02
 -1.02999676E-02  6.56766838E-03  4.09423983E-03  9.11660264E-02  9.96504757E-03
  8.78852204E-03 -1.18292828E-01  4.38402553E-02  3.78165533E-01  2.37265006E-02
 -2.31471181E-01  1.50833053E-01 -7.09258441E-02  1.27689555E-01  3.49216180E-01
  4.14365472E-02 -2.14765650E-01  2.52643145E-01  1.06974402E-01  2.02973283E-02
  3.84099076E-01  1.49285493E-02 -2.37061662E-01  1.28719486E-01 -7.75559433E-02
 -1.54456250E-01 -5.89647731E-02 -3.31609041E-02  1.22481133E-01 -3.72531413E-03
 -6.15255919E-03  9.07885938E-02  1.50844013E-02 -2.84064872E-03  7.24081493E-04
 -5.60960075E-02  6.93409290E-03  4.46470705E-03  5.24064607E-03 -1.59120069E-01
  1.89879239E-02 -4.64902608E-04 -1.75940690E-01  1.14484099E-02 -2.64301064E-02
 -2.04003843E-02 -2.93635502E-01  2.37083324E-01  3.58167358E-03  7.15414514E-02
  5.62529206E-02 -2.99206429E-02 -8.17616828E-04 -5.62348415E-02  1.98268198E-01
 -1.51584998E-01 -1.01633013E-03  5.91787352E-02 -1.03234078E-03 -8.15030691E-03
 -1.79777245E-02  1.37702551E-01 -2.74897869E-02 -2.11927184E-02 -2.63541541E-01
 -2.23813178E-01  2.08371173E-03  7.47692148E-02  4.81617092E-02  2.82832409E-02
 -4.87300527E-04 -5.12611852E-02  1.62572638E-01  1.50771721E-01  6.03509185E-04
  5.71501271E-02  9.27041891E-05  8.81901941E-03 -5.38078399E-02 -1.36867335E-01
  5.94749864E-03  6.09303810E-03 -1.91766085E-01  7.37732482E-03 -1.12797411E-03
 -1.20521767E-01 -1.55780916E-02 -2.45584615E-03 -4.33454592E-04  3.37085605E-02
  2.88555192E-01 -1.38497064E-02 -3.03745086E-04  1.58447541E-01 -1.94939491E-03
  4.28312612E-04 -2.85836469E-01  1.20298090E-02 -3.82626738E-01 -3.80271241E-02
  2.21550813E-01 -4.48790304E-02 -2.37498262E-02  3.38566793E-02 -3.99473191E-01
 -3.69144828E-02  2.22994996E-01 -2.48416761E-02  4.57687994E-02  3.10356234E-03
 -3.80079724E-01 -3.84503923E-02  2.21786540E-01 -4.84988778E-02 -1.98066517E-02
 -3.69727878E-02  5.75469226E-03  3.84253304E-03  4.41704976E-01 -4.02506117E-02
 -5.02962042E-04 -6.53717879E-02 -6.06500922E-02  3.51642535E-03  1.66167577E-04
 -6.99799432E-02 -8.47113986E-02  3.91329517E-03  3.31835483E-04 -1.67480808E-01
 -1.49873232E-03  1.14171289E-04 -3.23160335E-01  1.03211373E-02 -1.39253452E-02
 -1.02941442E-02 -1.05279688E-01  3.52768289E-01  1.52937759E-03  3.00079339E-02
  2.62883575E-02 -9.43187294E-02 -5.44209927E-04 -1.04526215E-01 -1.04644538E-03
 -2.53528834E-01 -1.05264915E-03  9.90360703E-03  6.18591363E-04  3.01253412E-04
 -1.13706890E-01  1.06294657E-01 -1.08257420E-02 -8.07568602E-03 -1.16948119E-01
 -3.04691743E-01  1.24502229E-03  2.23751246E-02  2.97679563E-02  8.16971353E-02
 -4.39061593E-04 -9.65387336E-02 -3.74783371E-03  2.27454616E-01 -8.14639446E-04
  1.76186279E-02  6.62132338E-04 -3.13117347E-04 -1.42700949E-01 -9.83839963E-02
  2.26421401E-04  1.93186416E-04 -8.16299116E-03 -2.24468759E-01 -2.97124272E-04
 -3.53487987E-03  1.38694291E-03  6.30335440E-02  2.42215391E-05  9.09278822E-04
  1.13949591E-02 -8.05609331E-02  1.35142178E-05  6.22392471E-02 -3.67134926E-04
 -1.28292544E-02  2.00971871E-02 -9.48939977E-02  6.65374669E-02 -5.26096077E-03
 -3.62606445E-02  7.69926294E-03  8.34682066E-02  1.12266494E-01 -1.58247806E-01
  9.29898465E-03  8.45188740E-02 -1.54485878E-02 -7.74663092E-02 -1.53528187E-02
  5.14018876E-02 -4.30110161E-03 -2.80834931E-02  7.01650063E-03  1.07851535E-01
 -9.73033647E-02 -3.99297290E-04 -1.85711796E-04  3.91161623E-02  4.64557409E-01
 -5.20429440E-05 -8.43430916E-04 -3.86901921E-03 -9.38183813E-03  1.42441423E-05
 -3.86365343E-03 -3.51474844E-03  2.56253937E-03  5.81973971E-05 -9.38736406E-03
 -7.57058018E-05 -3.38653442E-03  3.19441085E-02  4.50647138E-01  3.70099336E-02
  2.61948099E-02  3.21108819E-01 -3.71756114E-01 -1.49504981E-03 -9.53888577E-02
 -1.08318459E-01  9.77230917E-02  5.09562512E-04  1.04739973E-01 -3.53635132E-01
  2.50688571E-01  2.12559714E-03  7.07212595E-02  1.35229690E-03 -1.75446398E-03
 -1.06934914E-01  1.98556629E-01 -3.85101992E-02 -2.72762370E-02 -3.65456535E-01
 -3.69613319E-01  1.62316193E-03  9.92071843E-02  1.20147548E-01  9.62827395E-02
 -5.60009184E-04 -1.12239210E-01  3.79833565E-01  2.37477265E-01 -2.18716825E-03
 -6.78666049E-02 -1.46859917E-03 -1.54585780E-03  1.34663726E-01  1.72076311E-01
  7.28123636E-04  4.19742957E-04  1.11958324E-02  5.75181236E-01  7.09569760E-04
 -3.42958870E-03 -6.13218499E-03 -1.42172550E-01 -9.87529069E-05  6.92644472E-03
 -1.59904449E-02 -2.16154923E-01 -3.80506920E-04 -1.41922608E-01  9.59680369E-04
  3.33036189E-02 -7.80346477E-02  3.70434123E-01  6.52698106E-02 -5.64396048E-03
 -2.72214765E-02 -1.23440693E-01  9.34555502E-02 -2.28936555E-01 -1.09394817E-01
  4.29760793E-04  5.66211407E-02  2.43688605E-01  4.28157661E-01  3.32907132E-02
  5.37874429E-02 -5.33430570E-03 -2.20358149E-02 -1.00419359E-01  4.30332918E-02
  1.97289248E-01  1.60857478E-03  7.55881046E-04  2.46214680E-02  4.90799558E-01
 -7.75358200E-05 -5.66022254E-03 -5.00614776E-03 -1.25275475E-01  3.67789360E-05
  5.79636773E-03  1.69037070E-03 -1.15928978E-01 -1.07958646E-04  1.01099667E-02
  6.49868082E-04  6.78135173E-03 -2.62501410E-02 -1.33969234E-01  2.15277438E-03
  1.33952758E-03 -2.39882979E-01 -2.40981029E-01  2.31294603E-03  9.13525051E-03
  1.44842452E-01  1.18247100E-01 -1.30206283E-03  1.11365723E-02  1.69727310E-01
  3.01665721E-01 -3.90595675E-03  8.02673690E-02 -1.84592098E-03  2.76220167E-03
  1.79137316E-01  5.30575197E-02 -5.42843758E-04 -3.29797110E-04  2.27458294E-01
 -2.61189639E-01 -2.78175911E-03 -1.46239928E-02 -1.39188311E-01  1.29644802E-01
  1.57282729E-03 -1.34131358E-02 -1.63082699E-01  3.20199487E-01  4.35638061E-03
 -8.30117287E-02  2.13051574E-03  2.77026367E-03 -1.79345204E-01  7.43536493E-02
  5.38006437E-04  1.92516947E-04  8.19239377E-04 -6.21759138E-04  2.06739381E-01
 -1.35963475E-03 -1.21285598E-03  7.40726296E-04  4.54608942E-02  1.47186183E-03
  1.24863905E-03 -1.22753192E-03 -5.16521850E-01 -7.74650917E-03 -6.57709751E-02
 -5.87194921E-02 -9.63543498E-03 -8.60561015E-04 -5.09470404E-01  5.97012441E-02
  3.20211739E-01  8.60831443E-03  1.11929563E-02  3.03895974E-01 -3.96389441E-02
  4.24057617E-03  2.56783504E-02  1.26667216E-03  7.61209321E-04  2.93853723E-01
  5.51039806E-01 -6.57836625E-02 -3.44857706E-01 -6.42673355E-03 -1.06753980E-02
  3.00221464E-01 -6.99898749E-04 -2.22106934E-04  3.34068859E-03 -1.73143926E-03
 -2.92827263E-02  1.48920862E-03 -1.71594066E-03  8.23207668E-04  1.21455200E-02
  1.43975186E-03 -1.60455146E-03 -2.89500985E-04 -1.92312744E-01  2.00872774E-04
  4.20260689E-01 -6.87503787E-03  4.00268795E-03  3.97338674E-04  6.44772819E-04
  3.76798621E-04  1.13213937E-03 -2.01332602E-04 -3.29270742E-01 -2.30328826E-03
 -6.87068227E-04 -8.00009475E-05  2.27497087E-01  1.20919647E-03  8.16145098E-04
 -7.38757751E-04  2.97301059E-01 -4.90820835E-04  1.99596922E-02 -1.33871466E-01
 -1.95663029E-04 -2.10209851E-03  1.15049244E-03  6.67524381E-04  1.81859598E-03
  5.22016720E-04 -2.83877266E-01 -4.02281907E-03 -1.09202040E-03 -6.32832780E-05
  1.95653486E-01  1.07076303E-03  2.92209679E-04 -5.19534068E-04  2.78429404E-01
 -1.36898687E-04  3.25417934E-02  1.41502606E-01  1.01570724E-03  1.81989992E-03
 -3.77871941E-03 -1.08992744E-03 -4.52538451E-03 -2.12289921E-02  2.74746712E-04
  8.03379012E-03  2.66265102E-04 -1.32440024E-01  2.26451921E-04 -3.99848558E-03
  9.01978351E-03  4.73879421E-01 -2.22744782E-03  2.11447810E-02  1.54182385E-03
 -7.59954546E-03  4.52724078E-02  2.95424562E-01 -3.91111076E-01  5.88131953E-02
  2.45221484E-01 -7.83554596E-02 -2.55863403E-01 -8.25674782E-02  6.86629226E-01
 -9.90748412E-02 -4.40977708E-01  1.00698787E-01 -1.49393394E-01  9.06296671E-03
 -3.12777034E-01  4.73051448E-02  1.96202921E-01 -6.96868533E-02 -2.75823173E-01
  7.43163973E-02  5.37223150E-03  1.53010800E-03  4.93786149E-03  3.75865682E-01
 -1.80423956E-04 -1.30760902E-02 -1.50387754E-03 -2.16309754E-01  7.55647714E-05
 -7.39264171E-03  1.78321124E-02  1.41634458E-01 -2.76655166E-04 -1.04975719E-02
  2.06594018E-03 -1.17635236E-02 -4.97493075E-02 -2.55080857E-01  7.61759042E-02
  4.14233014E-02  1.48579371E-01  4.78723084E-02 -9.08953836E-03 -2.68663289E-01
 -1.10074453E-01 -3.95321928E-02  6.82265713E-03 -3.42654683E-02 -1.02356553E-01
  1.16528218E-01  9.63669069E-03  4.95608711E-02  3.34422328E-03 -6.14587002E-03
  1.03547398E-01  1.37670751E-02 -8.72467947E-02 -4.75596767E-02 -1.66258242E-01
  4.29668216E-02  6.96700470E-03  3.08235656E-01  1.21131420E-01 -4.01569762E-02
 -5.22450644E-03  1.49522473E-02  9.99640544E-02  1.17490222E-01 -7.49466983E-03
 -4.90444103E-02 -3.60126117E-03 -4.39832492E-03 -1.14918394E-01  1.06851872E-02
 -2.97075166E-05 -9.77183357E-06 -1.07692844E-03 -2.27039541E-02  6.05971846E-02
  2.76210843E-05  5.29537772E-04  8.09917752E-03 -2.36627834E-02 -2.29271323E-04
  6.85451401E-04  6.60848602E-03  6.82908109E-03  1.24315269E-03 -1.13760832E-01
  1.51978568E-01  2.39970517E-03  9.16229468E-03  4.11251080E-02 -7.36888627E-03
  3.77097307E-03 -1.00217781E-01  2.37164669E-02  4.70385017E-02  1.87218649E-03
 -1.29054008E-03 -5.07905957E-03  6.03041163E-03 -2.04259328E-02  1.27897460E-01
 -4.37947488E-02  9.01134635E-03  1.45920117E-03  9.12153441E-02 -6.24838824E-02
  4.74918161E-02  4.67315348E-06 -2.36859470E-06  1.18719251E-04  2.36972460E-03
 -2.87251983E-03  5.70703551E-05 -1.30678329E-04 -2.08531258E-03  4.17406480E-03
 -1.94132964E-04 -6.15636152E-05  5.42610968E-03 -2.36430169E-02  4.87978961E-05
 -9.98760940E-03  1.01864419E+00  4.16036822E-04  2.85801501E-03  1.59605533E-03
  8.40492696E-04  5.46104956E-03  1.53966453E-03  2.44968895E-01 -5.87119683E-03
 -4.30029671E-03 -1.32047623E-03 -1.89122158E-01 -5.76877694E-05 -4.22471597E-03
  4.69988106E-05 -4.82580261E-01  1.73519272E-03 -2.28738488E-01  4.32646465E-01
 -8.55849065E-04  1.56102154E-03 -1.69194589E-03 -8.90839141E-04 -5.57175462E-03
  1.99496728E-03 -2.60313456E-01  6.20552278E-03  4.35214638E-03 -1.66511181E-03
  2.01509527E-01  9.34657344E-05  4.82990150E-03 -4.19433803E-04  4.78019579E-01
 -1.74485852E-03  2.69343461E-01  3.85572036E-01  1.43163787E-03  1.55438262E-03
 -2.30795375E-03 -3.70358476E-04 -5.30915830E-03 -3.27067589E-03  4.15045340E-01
  5.99808700E-03  3.47084329E-03  2.11841526E-03 -2.82596801E-01  1.63446994E-03
 -2.16212450E-03 -9.45986248E-04  3.07180942E-02 -4.14862430E-02  9.90349690E-01
 -2.24340174E-01 -1.08558052E-02  3.88959234E-03  2.30515737E-01 -1.56488029E-02
 -1.22972696E-01  3.56078786E-01 -3.06683730E-01  1.38766222E-01  1.56936441E-02
  6.02556578E-05 -1.00360667E-02  2.46451476E-02  3.47181835E-02 -3.10952596E-01
 -2.41580697E-01  1.89798054E-02  1.27538079E-01 -4.02211385E-01  2.63525748E-01
  2.13663890E-01  1.95227411E-03  3.12785870E-04 -5.61829060E-03 -1.65342704E-03
  1.17323991E-01 -4.31695153E-03  4.22641080E-03  9.59155611E-04 -1.29404711E-01
 -1.15050779E-03  3.60419026E-03  8.28721551E-04  1.04471187E-01  5.77832295E-03
  5.84375621E-01  9.21670979E-02 -1.71114152E-02  4.34800080E-03 -1.16967544E-03
 -5.40206530E-04  5.30036423E-04  2.82035301E-03  2.93961631E-02  4.30884782E-03
 -5.10348254E-04 -1.96044759E-03 -2.79268315E-02 -2.85928089E-03 -7.95368627E-03
 -3.51162623E-03  4.17446113E-02 -1.07375998E-03 -3.82611308E-02 -9.32866103E-02
 -5.52622591E-03  6.75312318E-03 -1.14022016E-03 -5.30816449E-04 -2.53900507E-04
 -2.86889683E-03 -4.75167830E-02  4.28587352E-03  8.45902809E-05  1.95278034E-03
  4.27414068E-02 -3.07244290E-03 -6.49280289E-03  2.11377636E-03  1.46432220E-01
 -8.23377121E-04  2.92802452E-02  1.81481179E-01 -4.36387082E-03 -5.43770275E-03
 -7.29563750E-02 -9.28922130E-03 -3.99211555E-01  1.95628058E-03 -1.04927300E-02
  1.98133920E-01  3.09484878E-01  5.74609922E-03  9.25004199E-03 -8.97953636E-05
  2.38846038E-01 -2.61416586E-02 -4.63511945E-03 -4.87809254E-01 -1.20202970E-02
  8.74672895E-03  7.68425520E-01  1.64779509E-02  7.12966529E-02  5.43523339E-02
 -7.42257282E-02 -5.14329671E-01  7.19032078E-02 -1.14940185E-01  3.27340398E-02
  6.28943322E-02 -5.28363891E-02 -4.88316720E-01 -1.10979015E-01 -9.00721454E-04
  8.90184862E-02  5.18654416E-02 -8.34010437E-02 -4.97227070E-01  4.40118901E-02
  1.09703895E-01  4.92836507E-02  2.78496557E-03 -1.13950473E-01 -2.44360137E-02
 -4.45638844E-03 -5.10428087E-02  7.04439146E-02  1.68295318E-02  4.72283981E-03
 -1.51199342E-01 -1.06426600E-02  1.38833215E-02 -6.57051983E-04  3.31379224E-01
 -7.59301705E-03 -3.18193951E-03 -4.55047502E-01  8.19054745E-02 -6.37810785E-02
 -2.66809380E-02 -3.05491380E-02  8.69684602E-02 -2.69337576E-03  2.37964766E-01
  2.70484875E-02 -7.51659424E-02  2.74422106E-03 -8.04566999E-02 -1.04307832E-01
 -1.13282534E-01 -5.27682380E-04 -4.66912560E-02  1.07682572E-03  1.25582880E-03
 -1.00007839E-01  1.33778704E-01 -5.96766389E-02 -2.50405320E-02 -2.44457580E-02
 -9.68234953E-02 -5.03108334E-04  2.23502421E-01  1.85986738E-02  8.41332531E-02
  6.03790150E-04 -8.02307982E-02 -8.45082080E-02  8.79049830E-02 -3.36850017E-03
 -3.72655925E-02 -7.37389040E-04 -3.69544780E-03 -9.10461902E-02 -1.14062266E-01
 -2.23176537E-02 -1.17445616E-03  5.48422720E-02  3.81662004E-01  4.25230882E-02
  6.30566630E-02 -3.75441236E-02 -3.21352323E-01 -3.70424575E-02  1.16241145E-02
 -1.53215638E-02  2.88937379E-02  8.01571914E-03  8.64913204E-01 -1.18616042E-02
 -1.04037450E-01  4.83074565E-01 -4.15689054E-01 -1.18656439E-01  1.37312066E-02
  2.60163401E-02  2.25982747E-01  5.41156724E-01  3.13482596E-01  2.86055451E-01
 -1.08251428E-03 -1.76058362E-01 -3.49307762E-01  4.37777851E-02  6.61117212E-03
 -1.63865492E-01  2.32731068E-02  4.99437806E-02  2.25348639E-01  5.75392368E-01
 -2.20614663E-01  1.76895678E-02  2.29220311E-04 -4.64637348E-02  1.37626454E-01
  1.43536379E-02 -2.45535163E-02  4.22403801E-02 -8.88163133E-02 -1.45125415E-02
 -6.85765697E-02  1.07527468E-01 -1.51676382E-01 -1.86607705E-02  8.11037324E-03
  1.12971075E-02  2.47456779E-02 -5.86079996E-02 -1.85617957E-01 -6.14594866E-02
 -2.25371231E-02 -3.24410733E-02  3.44457329E-02 -1.20873577E-02  2.40377523E-01
  3.18840799E-02 -3.07784088E-02  1.32039226E-02 -8.21091194E-02  1.34983898E-02
  3.50218613E-02 -2.44320600E-03  1.87998538E-02 -3.81474148E-03  2.85851491E-03
  6.20828167E-02  8.38126228E-03 -2.26543387E-02 -8.08989587E-03  7.67512625E-02
 -7.66930829E-02 -1.63709998E-02  8.29572808E-02 -8.04987616E-02  8.44835511E-02
  1.73065806E-02 -2.47494925E-02 -5.82051428E-02  1.17387115E-01  1.71119658E-02
 -2.60177741E-02  7.10362694E-03  1.38167224E-02 -1.02474497E-01 -1.55779735E-02
 -5.06615421E-03 -8.93562099E-05  1.88407395E-02 -3.07750954E-02  4.13116149E-01
  1.28298503E-02 -1.52062907E-02  2.79775130E-02 -3.92932948E-01  5.05579253E-03
 -1.62640123E-02 -5.24831807E-03  1.37117940E-01  7.08103681E-02 -9.78353973E-02
  9.27658882E-01  3.21810336E-02  4.13447758E-02  4.46413336E-01 -7.51213293E-02
 -2.57244553E-01 -1.97195571E-01  1.47305767E-01  2.04845256E-01  5.96786288E-03
 -2.73465578E-03 -1.05048110E-02  3.66483826E-02 -3.29528603E-02  5.64795715E-01
 -4.59181100E-01  8.48373522E-02  2.50965082E-01  2.05576529E-01 -2.14248613E-01
  2.25721421E-01  4.38349623E-03  1.18890291E-04 -2.28719962E-02 -1.86795326E-02
  2.33609783E-01 -8.98207400E-03  2.08369484E-02  1.27946586E-02 -2.37550153E-01
 -8.08268970E-03  2.77208800E-02  1.40866963E-02 -2.94836144E-01  1.90633292E-03
  9.31007352E-02 -2.24385500E-01 -2.13904061E-02  2.97649513E-02 -4.79814646E-03
 -1.64604201E-03  2.18580161E-02  1.41097146E-02 -2.22815429E-01  1.79826978E-02
 -2.38065287E-02 -1.52299492E-02  2.42784805E-01 -6.31472878E-03 -1.95474962E-02
 -1.74389772E-02  1.84800356E-01 -3.43024393E-03  5.59744183E-02 -1.56379955E-01
 -1.90742192E-02  1.29016312E-02 -8.10912608E-03 -2.84213932E-03  7.31047478E-03
 -1.17632563E-02 -2.37127319E-01  3.17630249E-02 -8.69823906E-03  1.13305407E-02
  2.63512381E-01 -1.42016965E-02 -9.52305204E-03 -3.51570680E-03  1.20266415E-02
  3.23503287E-03 -2.19029232E-02  6.17527598E-03  1.58345308E-03 -9.90870764E-03
  7.84449395E-02 -1.57514271E-03 -3.31360169E-01  1.83114824E-02  4.28744125E-02
 -1.86034636E-01  2.98626742E-01 -2.22665822E-02 -3.89227021E-02 -9.53124098E-02
  2.97296979E-01  3.19631253E-02  1.14405778E-02  6.99554303E-02  8.39191133E-03
  4.67232019E-02  1.72864864E-01 -1.41235004E-01  6.37738096E-02 -4.09551082E-02
  6.45907549E-02 -2.61191408E-01  3.63253651E-02  1.23631874E-01  4.77420350E-02
 -2.27452270E-02  7.78840325E-02 -3.64324661E-01  3.84954430E-02  3.77093058E-02
  5.09142357E-03 -3.85254965E-02  9.13454122E-02 -2.45188272E-01  3.53861553E-02
 -7.52774854E-02 -5.70878457E-02 -4.35267520E-04  4.63776470E-01  6.93039127E-02
  9.60257307E-03  1.21379166E-01 -4.38743278E-01 -5.08732220E-02 -1.09698440E-02
  7.60306770E-02 -4.08433566E-01 -3.05040445E-03 -4.14721407E-03 -1.03706686E-01
  9.13659951E-03 -1.07700285E-02  5.37328596E-01 -1.90665649E-01  6.51811310E-02
  2.10176649E-02 -3.93910839E-01 -2.15004242E-01 -4.38660214E-03 -2.50274348E-01
  4.47246709E-01  2.30222353E-01  4.84823936E-03  1.06805634E-01  3.09180551E-01
  1.27855752E-01  7.32931581E-03  5.18401345E-03  1.44054098E-03 -7.48208067E-03
  2.11061978E-01 -2.54392406E-01  6.04555617E-02  1.98196874E-02 -3.25798019E-01
  2.43277862E-01 -6.56949763E-03 -2.35467829E-01  3.76703105E-01 -2.54804960E-01
  7.60267232E-03  1.35858064E-01  2.59140357E-01 -4.33653971E-02 -1.39973682E-03
 -1.92661567E-02 -2.07866439E-03  3.20672144E-04  1.47847509E-01  2.09716876E-01
 -2.61310052E-03  3.64727957E-05  6.04267626E-03 -2.41112390E-03  5.14927723E-01
  7.26380675E-03 -5.61384712E-03  2.87872352E-03 -3.86108370E-01  1.47628899E-03
 -4.27395150E-03 -1.56200137E-03 -2.25067108E-01  5.90156953E-02  1.48669396E-01
  4.18764095E-01  2.78875833E-02  8.68697967E-03 -1.36913444E-01  1.55121300E-01
  1.26019546E-01 -8.33108151E-02  4.83774606E-02  2.96085027E-01 -1.23613543E-02
  1.24469155E-02  7.55926624E-03  5.77288814E-03 -7.49439703E-03  3.98281398E-01
  1.50371449E-01 -1.64357506E-01 -1.45619659E-01  9.51299139E-02 -5.26418468E-02
  2.96790468E-01  8.17086376E-04 -5.84550178E-05 -5.90403309E-03 -5.66339885E-03
 -4.40873576E-01 -4.76224438E-04  5.78581231E-03  4.21585884E-03  4.46491138E-01
 -6.09067820E-03  1.22138966E-02  2.76295884E-03  5.74245202E-01  4.12833256E-03
 -1.21002168E-02 -7.69818200E-02 -3.32748173E-03  8.91529735E-03 -2.82577861E-03
 -8.67149122E-04  8.88496080E-03  4.83780688E-03  4.66327861E-01  1.08143874E-02
 -1.00044553E-02 -5.84141319E-03 -5.37183694E-01 -2.76383389E-03 -4.31053759E-03
 -6.16374019E-03 -9.40277228E-02 -1.01183859E-03 -2.52569753E-02  8.85997853E-02
 -5.25948206E-03  2.96636248E-03 -3.39119473E-03 -1.06063851E-03  5.11360024E-03
 -4.54858075E-03  4.97826677E-01  1.32563310E-02 -5.95592837E-03  5.06038464E-03
 -5.71937714E-01 -5.10522866E-03 -1.35120377E-03 -3.47317729E-04 -1.52585177E-01
  8.70790235E-04 -6.85705432E-02 -1.35316122E-01  9.87797724E-04 -2.09781716E-03
 -6.88663123E-04 -2.63467036E-04  1.03370648E-02  5.37020929E-01 -4.48951492E-03
  8.40946054E-03 -4.25106658E-03 -4.54680844E-01  4.37762223E-03 -1.15325483E-02
  2.30736286E-02 -8.10537191E-02  9.28894985E-04  2.54009954E-01 -1.41171584E-03
 -5.62826470E-02  1.44065591E-01  7.88322628E-01 -9.79177575E-02 -3.57096907E-02
  6.49196158E-03 -1.01081115E-01  2.18850894E-01 -1.07844260E-01  1.77024215E-01
  6.99146366E-02 -2.49508305E-02  1.83059943E-01  3.72988577E-01  8.02275111E-03
 -7.68038833E-02 -2.74138396E-02  2.33389409E-03 -8.59823480E-02  1.95182033E-01
  9.00488673E-02 -5.51942928E-04 -1.25436222E-04  6.09909444E-02 -5.12708501E-01
  1.02643051E-03  2.45625312E-03 -6.57354603E-02  4.05096539E-01 -1.05653225E-03
 -1.70835044E-02  1.97878802E-03  3.25564565E-01 -1.28880556E-03 -9.35317942E-03
  2.78781029E-05  1.14994172E-02  1.83731602E-01  7.23996968E-01  3.97957347E-02
  1.08506716E-02  4.53524194E-02  2.53024734E-02 -4.66884653E-03 -1.62847080E-01
 -4.17694561E-02 -5.26410540E-02  5.94980575E-03  1.22466607E-01 -1.11202854E-01
 -2.61498449E-01 -6.44469676E-03 -7.24875564E-02 -1.83526318E-03  4.39943476E-03
 -2.48072427E-01  7.13819174E-03 -6.26812576E-02 -1.63944395E-02 -1.72315269E-01
  1.07041635E-01  1.74661862E-03  2.50740859E-01  1.98610562E-01 -1.43203549E-01
 -2.35654454E-03 -1.41610499E-01  1.71644552E-01 -2.53942394E-01  6.18610889E-03
  6.25032784E-02  2.25285480E-03  4.49757493E-03  3.12781956E-01  4.53390739E-02
  2.40099342E-02 -3.36802215E-03  1.58350987E-02 -6.98215605E-02 -1.04676551E-02
 -6.55381598E-02  3.45600827E-03  7.45401411E-02  1.20102276E-02 -7.95602991E-02
  2.60704890E-01 -5.74311093E-03  8.69194435E-04 -5.06036216E-02  5.99435852E-03
  1.45145116E-03 -1.92119284E-01 -7.27589766E-03 -2.14425897E-02  8.39445597E-04
 -5.86028312E-02 -5.74400339E-03 -6.87956924E-02 -4.58978437E-02 -9.50005198E-02
  5.11491920E-03 -1.89902795E-02  2.53238322E-02 -2.74114380E-02 -1.25240121E-02
 -1.62773717E-02  1.80393485E-03 -6.28156891E-02 -1.59860834E-02 -6.34382542E-02
  3.24733685E-02 -1.92437946E-03 -1.16926846E-03  2.70266722E-01  9.51301035E-03
  2.75653672E-04  5.47137429E-02 -3.44576874E-01 -5.19169760E-03 -1.48738633E-04
 -3.67444134E-01  4.14670878E-01 -8.36236379E-03 -5.30508593E-04  2.51578680E-01
  1.55320609E-04 -3.29140814E-04  6.19856252E-01 -1.02746920E-01 -2.11419416E-01
 -4.04039765E-02  2.05721798E-01 -1.15137162E-01 -6.47315795E-04  8.05641507E-01
 -2.56387057E-01  1.00319673E-01  7.62406227E-04 -2.19880368E-01  3.92481871E-01
 -2.15141756E-01 -8.92969808E-04 -5.43392278E-02 -6.21459268E-04  3.16107256E-04
  1.06273267E-01 -2.15757562E-01 -2.19943487E-01 -4.19577260E-02  2.21667282E-01
  1.04357264E-01 -1.38180006E-03  8.37810578E-01 -2.69751142E-01 -8.41839642E-02
  1.74111655E-03 -2.18646804E-01  3.97241753E-01  2.18902908E-01 -1.61448914E-03
 -6.00934025E-02 -7.54513040E-04 -5.51552410E-04  1.13252250E-01  1.90920170E-01
  6.45087619E-04 -2.08999029E-04 -8.30877702E-04 -1.06577965E-01 -5.23279443E-04
 -1.92690867E-03  3.90455043E-03  7.56209877E-02  5.96335343E-04 -4.13202404E-03
  1.21761098E-02  1.37574465E-01  1.28745619E-04  9.81941854E-03  5.71315306E-05
 -1.02474311E-03  1.80628892E-03  2.56162661E-01 -2.39142802E-01  1.35897886E-01
  1.18077525E-01 -7.84742997E-02 -7.19447380E-02 -6.57495559E-02  4.10203987E-01
 -2.34237071E-01 -2.04033595E-01  1.28749391E-01  1.64699781E-02  7.45823979E-03
 -1.94331498E-01  1.10744340E-01  9.54638201E-02 -6.55036150E-02 -8.76963375E-02
  5.71776829E-02  6.25946398E-03 -9.19832076E-04  3.59144422E-02  1.03655744E-01
  2.37322186E-06 -1.75274939E-02 -3.38634080E-02 -1.09056125E-02  4.15263221E-05
 -4.87333687E-04 -3.27236581E-02 -6.30128257E-01 -1.91748623E-04 -6.84396403E-03
 -8.44813139E-05  8.52073545E-04  8.38577086E-02  4.09730532E-01 -2.34398850E-01
 -3.87511788E-02  7.40503713E-03 -3.06136550E-01 -5.19658316E-03  8.92508975E-01
  1.11008461E-02  3.67099310E-01  6.96355957E-03 -2.50449102E-01  2.99143211E-02
 -3.63027589E-01 -3.64824567E-03 -6.92676821E-03  1.21349134E-04  7.27394525E-04
 -8.98007371E-02  1.69395827E-02  2.21616463E-01  3.66635681E-02 -1.05674511E-01
 -2.52774481E-01  4.24039289E-03 -8.44848614E-01  1.17040491E-01  3.00686546E-01
 -5.68188844E-03  2.30546515E-01 -4.56186989E-02 -3.33174616E-01  3.16101579E-03
  9.25420583E-04 -1.10448427E-04  6.90160174E-04  1.15377358E-01  3.41845667E-02
 -3.39671921E-01  1.10812062E-01  3.52910245E-01 -5.17203879E-02 -5.86314108E-03
  7.70692477E-01 -4.20858816E-01  6.46283077E-02  8.35705292E-03  9.09819667E-02
  1.28311162E-01 -3.61988944E-02 -6.75722968E-03 -3.82643996E-03 -2.17527285E-03
  1.66095972E-03 -1.89460652E-01 -4.30295006E-02 -1.56135352E-01  1.60188339E-01
 -1.70308421E-01  1.65818366E-01  9.14316646E-02 -1.87585539E-01 -2.25786271E-01
  1.60199937E-01 -1.59504396E-01  1.53341387E-01 -2.50134248E-01 -1.72616411E-02
 -1.51704095E-01  1.63087146E-01 -1.71416703E-01  1.60847074E-01  6.98398973E-02
  1.97021540E-01  9.29626800E-02 -2.92314220E-02 -1.22370043E-01  1.73885123E-02
 -8.44339282E-03 -1.94825297E-01  2.43749492E-01 -2.34401967E-02  1.24728665E-02
 -7.67349142E-02 -2.51872230E-01  2.04852883E-02 -2.56992624E-03  1.51601269E-01
 -2.46710651E-03 -2.43077586E-04 -6.93518387E-02 -4.30965258E-02 -6.77840063E-02
 -6.30309273E-04 -4.39763021E-01 -2.84810581E-01 -4.80335255E-05  2.33949561E-01
  6.66980662E-01  4.27012974E-01  1.29207776E-04 -1.48547629E-01 -2.81460977E-01
 -3.21230122E-01 -2.09007543E-03 -3.18541138E-02 -4.60523759E-04  1.97895015E-03
 -2.41968823E-02 -2.01701520E-02 -8.09841139E-02 -6.11788970E-04 -3.87883133E-01
  3.44210897E-01 -1.21272653E-03  2.80950578E-01  5.93097616E-01 -5.11792663E-01
  1.91373182E-03 -1.59556959E-01 -2.49608894E-01  4.05462104E-01 -3.53334763E-03
 -3.77274646E-02 -7.65693882E-04 -2.24091038E-03 -5.15366341E-02  2.31371316E-02
  2.91449240E-04 -1.15941042E-04 -2.84275253E-03  7.94695630E-04  1.13249099E-03
 -1.46992802E-03  5.09461797E-03 -1.06121650E-03  3.61335078E-02  5.47417256E-05
 -1.12178917E-02  2.14472035E-03  2.47651865E-02  7.20721987E-03  2.77428450E-01
  2.69126406E-02  4.87599417E-03  2.93662991E-04  1.53428002E-01 -8.93709908E-02
  5.68049350E-03  7.11134400E-02 -7.23926896E-02  6.21907816E-02  1.23557830E-02
 -5.43597211E-03  1.49605003E-03  7.35197165E-03  9.45454973E-03 -3.08271021E-02
 -1.65229123E-01  9.80424906E-02 -7.08762080E-03 -7.32449718E-02  6.41035424E-02
  7.72396874E-02  6.25579956E-03 -2.85949058E-03  6.96787900E-03 -4.17835343E-05
 -8.80249844E-01 -1.16838000E-02 -1.00880828E-02  6.02780912E-05  1.41080428E+00
  3.84967456E-03  2.64120105E-03 -9.18096270E-05 -3.60167511E-01  8.79743506E-04
 -2.64998488E-02 -5.74189075E-03  4.49913466E-03 -2.93993187E-04  7.23011821E-04
 -8.07188385E-05  1.54073755E-03  6.02161668E-03 -2.40224300E-01 -2.67241517E-03
 -2.63171816E-03 -9.58142310E-03  4.03121439E-01  2.16020893E-03  3.54838813E-03
  5.33924382E-03 -4.39527035E-01 -3.99489166E-04 -6.84137069E-02  1.57683834E-01
  3.10616568E-04 -2.28915466E-03  1.00689094E-03 -1.14286683E-04 -8.47565079E-04
 -6.64617831E-03 -4.40842477E-01 -3.62124939E-03  1.21475696E-03  1.05550765E-02
  7.33738207E-01  2.85229467E-03  1.09504834E-03 -6.57823854E-03 -6.71075047E-01
 -3.41048337E-04 -8.49717443E-02 -1.58728366E-01  8.69761298E-04  2.08526676E-03
 -3.62920422E-03  1.77724332E-03 -1.72718140E-03 -1.07521315E-02  2.91817670E-02
  5.86359778E-03  3.95866624E-03  1.40954312E-02 -3.91282135E-02  1.17779553E-03
 -8.53959716E-03 -1.53330841E-02  9.72263607E-02 -3.99328437E-05  5.92370898E-02
  8.06279037E-02  1.01368343E-03 -7.56114876E-03  5.79371341E-02 -2.92785385E-03
  2.65904087E-02  1.20589760E-02 -1.90260259E-02  1.97572612E-02  1.07356898E-03
 -5.45391586E-03 -6.64602758E-03  2.68787949E-03 -5.10615029E-03  5.50347067E-03
 -6.35582597E-02  1.40415817E-02 -2.47825549E-02 -8.30455055E-03  1.08119700E-02
  2.62648286E-02  6.09047610E-03 -2.95254412E-03  5.64761558E-03 -5.08643101E-03
 -1.03747397E-01 -1.12947814E-02 -8.15071443E-03  7.75215968E-03  1.71218043E-01
  2.84517078E-03  6.68643309E-04 -2.35090885E-03 -4.49822933E-02  1.56013015E-03
 -5.01043032E-03 -9.15878082E-03  2.12997950E-03 -1.27960386E-03  2.50257153E-03
 -3.77561927E-04 -1.69914855E-02  6.05535129E-03 -7.43602743E-01 -8.44452342E-03
  2.80293810E-02 -9.34725261E-03  1.24713883E+00  6.87143681E-03 -1.76571229E-02
  7.66831509E-03 -8.98717100E-01 -5.31587759E-04 -7.84561873E-03  3.24443667E-02
  6.95923951E-04 -1.11560628E-03 -1.78247658E-03  2.74305417E-04  1.70843722E-02
 -1.69163495E-03  6.08923232E-01  5.47135260E-03 -2.84395919E-02  3.10177463E-03
 -1.01915153E+00 -3.96960792E-03  2.26449931E-02  1.87254498E-03  6.93307814E-01
 -1.19511703E-03 -1.28269146E-02 -6.72914306E-03 -3.07414940E-04  2.96432772E-03
  4.22787336E-01 -2.07909170E-01  1.11810373E-01  8.07964674E-03  3.17428836E-03
 -7.14410996E-01 -3.04963014E-01 -1.17711769E-02 -4.98429449E-03 -1.34187424E-01
  6.34498656E-01 -3.41729492E-02 -1.21172739E-03  1.06127381E-01  4.21707261E-03
  8.64371343E-04 -1.40690365E-01  2.01711236E-02  1.40177412E-01 -1.70163282E-01
  1.95727523E-01 -1.85303391E-01 -1.26360470E-01  2.15352182E-01  1.55317689E-01
 -1.85485117E-01  1.79774179E-01 -1.84426817E-01  2.58282029E-01  1.66654119E-02
  1.34613723E-01 -1.66121283E-01  1.97222252E-01 -1.83503099E-01 -9.88995628E-02
 -2.27403080E-01 -5.23749935E-01  2.56063875E-01 -5.36613942E-01  1.68539841E-02
 -1.12121122E-02  9.50463499E-01  7.77624087E-01 -2.58270038E-02  1.86651742E-02
 -2.16501191E-01 -3.23021658E-02  3.45168205E-03 -3.86254784E-03 -1.82068682E-01
  9.93796654E-04 -1.64732621E-04 -1.53251994E-01  2.99646276E-02 -3.35452585E-02
  4.92858669E-03 -2.17231340E-02 -2.66617062E-01 -1.07964237E-02  1.37037301E-01
  4.99610417E-02  4.25359006E-01  1.81934348E-02 -1.37684824E-01 -2.37565204E-01
 -1.61363478E-01 -1.44693877E-02  8.25181238E-02 -4.80522520E-04  1.65283384E-03
  2.87368130E-03  1.73763244E-01 -3.43775725E-02  5.00724845E-03  1.10519841E-02
  2.64148822E-01  1.35462108E-03  1.40014894E-01 -4.01757094E-03 -4.23533257E-01
 -2.19659343E-03 -1.45226171E-01 -2.05957554E-01  1.68133103E-01 -1.11942251E-04
  8.46087385E-02 -6.62007972E-04 -1.36829340E-03 -1.95785984E-02 -1.69842686E-01
  4.39164842E-02 -2.37131823E-02 -9.74740275E-03 -2.02070766E-01 -1.06754884E-03
 -8.10465875E-02  1.44711715E-02  2.58870986E-01  1.40778681E-03 -1.69078321E-03
 -6.08415222E-02 -4.97825986E-02 -4.35037436E-03  6.20724101E-03 -1.94304939E-03
 -4.84926415E-03  1.52765573E-02 -2.55318150E-02 -1.56048012E-01  1.46545080E-01
  7.64162620E-02 -1.11101595E-02 -4.58952562E-02  4.57526780E-03  3.17389038E-01
 -2.97662155E-01 -6.26463089E-02  2.97601233E-02  2.41842942E-02  3.09475176E-03
 -1.20878470E-01  1.16756603E-01  6.91546422E-02 -7.49603467E-03 -5.10888543E-02
 -8.70457015E-03  5.84024149E-02 -3.10232341E-02 -6.39843596E-03 -1.64880903E-01
  1.60521535E-03 -1.15385848E-01  9.70988459E-03  2.57654920E-01 -2.80061985E-03
  3.33287619E-02 -3.97704976E-04 -1.56864599E-01  5.05701037E-04 -1.07834931E-02
  1.89191396E-04  8.45362981E-04  2.39056084E-02  1.14560682E-01  3.65281515E-02
 -7.53119687E-03 -6.29890734E-01 -1.77024666E-04  1.96354433E-02 -1.16389942E-01
  1.08626540E+00  9.15886549E-03 -3.38942128E-02  1.44116819E-01 -8.51146948E-01
 -1.92034600E-02  2.55212079E-02 -1.20523428E-03  2.68767050E-04 -5.00346918E-04
 -3.70286625E-02  3.31650671E-02 -4.62893434E-02  9.53857463E-03  6.09722955E-01
 -4.60596556E-02 -1.61097705E-02  1.41462925E-01 -1.05207506E+00  8.45580011E-02
  2.77568750E-02 -1.67660174E-01  8.42999128E-01 -3.85395773E-02 -2.00090589E-02
 -1.14696304E-02  1.54901298E-04  1.44030525E-04  2.99781906E-02  5.14975777E-02
 -4.64579299E-01  2.77240364E-01 -7.07580526E-02 -9.76466664E-03  1.15507072E-03
  7.24129317E-01  1.38394803E-01  1.76822383E-02 -4.70160455E-04 -1.87018382E-02
  4.50546526E-01  4.71580557E-02  1.38822810E-02  1.28155786E-01  2.68677730E-03
  7.69516974E-05 -2.21161235E-01  2.69442742E-02 -2.74425481E-01  2.23052011E-01
 -3.06441374E-01  2.62357801E-02  1.50896115E-01 -2.45071430E-01 -2.19477600E-01
  1.93099090E-01 -2.61770406E-01  3.30132773E-02 -2.68542893E-01 -1.74798996E-02
 -2.72818513E-01  2.17360338E-01 -3.17400332E-01  2.25267245E-02  1.21885179E-01
  2.64305707E-01 -7.30670243E-01  4.28569070E-01  1.50562513E-01 -5.97081650E-03
  2.22986492E-03  1.33024221E+00 -2.45147993E-01  1.20410207E-02 -3.18034778E-03
 -3.08970675E-01  1.61719091E-01 -7.30721203E-03  4.10375663E-03  1.12554196E-03
 -1.14206050E-03  1.01664619E-04  1.49756443E-02 -4.84330486E-04  6.08628088E-02
 -1.62112446E-02 -1.36301575E-03  1.03708793E-01 -2.42691868E-03 -1.44443299E-01
  7.58816762E-03 -2.03377601E-01  4.31025606E-03  1.25871313E-01 -8.37479052E-02
  4.53119612E-01 -3.68227318E-03  8.34800914E-02  4.89837817E-05 -5.13885815E-04
  1.35969280E-01  9.84018385E-02  5.99572898E-02 -1.59664062E-02  9.84525480E-02
 -1.40209303E-01 -4.80267192E-03 -1.41322520E-01 -1.68263792E-01  2.68316500E-01
  8.52674578E-03  1.21949948E-01  3.29807018E-02 -5.01476724E-01 -6.98233645E-03
  8.31981013E-02  6.92679046E-05  4.66922486E-04  1.20939551E-01 -1.17913588E-01
 -8.87062057E-02  7.49737400E-02 -4.88399018E-01  6.08100603E-02  1.18550935E-02
  1.12576359E-02  9.33391122E-01 -1.29318132E-01 -2.55045395E-02  1.86309346E-01
 -5.12330364E-01  2.72623276E-02  6.73604435E-03  8.12518082E-02 -6.40469279E-03
 -2.67797506E-03 -2.36792134E-02 -1.82660647E-02 -2.08865960E-01  2.33598419E-01
 -1.67438513E-01  4.01308684E-02  1.05113215E-01 -9.22820831E-02 -2.48777825E-01
  2.90229295E-01 -2.81033707E-01  5.10626059E-02 -1.85109784E-01 -6.32824984E-03
 -1.89301672E-01  2.10089327E-01 -1.44019428E-01  3.51654968E-02  8.31366622E-02
  9.62693164E-02 -4.18396368E-01  3.52434537E-01  7.26374138E-03  5.26889973E-04
  1.42800012E-04 -2.06984524E-01 -7.89238374E-02 -1.41863682E-03  3.26637789E-04
  2.09309158E-01  8.17464152E-02  6.57306447E-03  5.61530151E-03 -5.81630310E-01
 -8.63144446E-04  5.12281621E-04 -4.28391272E-01  4.91067348E-02  1.37686940E-01
 -7.01448152E-02  2.61197241E-01 -4.53599686E-01 -5.15363073E-03 -2.75374657E-01
 -5.32465743E-01  9.53186831E-01  1.02556759E-02 -9.04335376E-02  1.79348010E-01
 -5.53776626E-01 -1.02823345E-02  8.37274677E-02  4.09592844E-05 -1.16629555E-04
 -1.56598170E-02  1.21820642E-01  1.38036359E-01 -7.03628144E-02  3.10772502E-01
  4.00999889E-01 -5.75086422E-03 -2.75485132E-01 -6.36643790E-01 -8.48719672E-01
  1.13876666E-02 -8.65371875E-02  2.55054492E-01  4.65869168E-01 -1.07898608E-02
  8.72827476E-02  2.22556538E-04  3.47655052E-04 -2.76429648E-02 -1.19246216E-01
 -2.51037767E-02  2.22492753E-02  4.51637563E-02  1.31864004E-01  9.09992857E-04
  2.65276479E-02 -9.84576967E-02 -2.73202122E-01 -1.86529489E-03 -3.72468215E-02
  6.55044578E-02  1.99146546E-01  1.25942275E-03 -1.67816041E-02  1.87384496E-04
  4.00764690E-03 -2.23823546E-02 -1.38523400E-01  1.39490811E-01 -1.46782994E-01
 -2.51674699E-02  3.59488701E-02 -3.54051337E-02  5.47037028E-02 -2.12795765E-01
  2.38835515E-01  7.50849052E-02 -5.99766114E-02 -7.44160057E-02 -5.33643199E-03
  1.16213895E-01 -1.21558373E-01 -1.78222849E-02  2.96050921E-02 -2.47342707E-02
 -4.96735628E-02  7.79168301E-02 -7.08598377E-02 -1.98849567E-02  1.78103499E-01
 -5.84329533E-05 -3.34367162E-02  4.36829418E-02 -3.97531053E-01  7.40850214E-05
 -1.80320523E-03 -4.23150955E-02  7.42361494E-01  1.07267935E-04  2.52209919E-02
  6.63444063E-05  6.96480055E-04 -4.98168914E-02 -5.26873229E-01  2.22975801E-01
 -1.39827369E-01 -5.89569847E-02 -5.19844630E-01 -2.31131794E-03 -3.93610142E-01
  1.03589625E-01  1.10942403E+00  4.72811862E-03  1.06514971E-01 -4.58119690E-02
 -1.10177902E+00 -4.37900011E-03 -4.85623303E-02 -3.93776169E-04  4.46320272E-05
  2.26362342E-02 -6.35805380E-02 -2.22338877E-01  1.39651686E-01  3.46531430E-02
 -5.38232283E-01  1.87301132E-03  3.85976785E-01 -4.86550613E-02  1.14862354E+00
 -3.83162147E-03 -7.48153450E-02  3.99467536E-02 -1.08476484E+00  3.21969475E-03
  3.38014668E-02  2.66619506E-04 -1.31358475E-04 -4.69898845E-02 -4.48510114E-02
  9.17014530E-02 -8.89889416E-02 -3.40513258E-02 -3.12200169E-03 -4.96937694E-01
 -3.64029776E-02  7.49616737E-02  6.47061808E-03  1.10215125E+00  3.52155597E-02
 -7.16420603E-02 -7.28683926E-03 -6.02501885E-01  4.07672838E-02  2.14273208E-01
  2.58192901E-01  1.91805372E-02 -3.32346958E-03  6.74852740E-01 -7.41218603E-01
  3.55988977E-01 -5.49649071E-02 -1.65100145E-01  2.57242955E-01  2.66928790E-02
 -2.56876327E-02  8.77351319E-03  6.74563495E-04  1.56944305E-02  2.24329227E-02
 -7.76625268E-01  8.72380084E-01 -4.30774744E-01  7.18828260E-02  1.49121241E-01
  3.08907702E-01 -4.21854148E-02  4.11579204E-02  1.15163646E-02  2.73105311E-05
 -2.46354335E-01  1.04137860E-02 -2.59667681E-02  1.52020599E-04  4.83361837E-01
  2.53168725E-03  6.06343650E-02  4.52374819E-03 -8.51401721E-01 -1.19930158E-02
  5.53177719E-02 -4.36168948E-02  1.26966234E-02 -8.32612368E-03 -3.52152836E-03
  2.44661030E-03 -1.46430514E-02 -3.89596975E-03  2.66556765E-01  6.39259103E-03
  3.08572800E-02  8.72990413E-03 -5.64592670E-01 -1.16822505E-02 -4.40621027E-02
  1.02754432E-03  7.41199811E-01  3.30499433E-03  2.04813514E-02 -1.56535880E-02
  3.85211934E-03  6.23223572E-04 -1.13663446E-02  8.04025756E-03 -1.75666538E-02
 -2.38124744E-03  3.02631046E-01  1.71708613E-02  3.78988378E-02  5.89072154E-03
 -6.36462332E-01 -1.50977623E-02 -5.35626792E-02 -1.00592210E-02  7.68353317E-01
  3.75366769E-03  7.16390577E-03 -4.47563048E-03  9.67093209E-04 -1.93020560E-03
 -1.53013509E+00  1.55633560E+00  2.17240780E-01  4.86802187E-02 -3.41150851E-02
  2.13519996E-01 -4.94599534E-01 -1.12848353E-01  7.89260855E-02 -3.60767950E-01
  5.00217614E-01  7.93248106E-02 -3.34813427E-02  2.42863532E-03  1.99288810E-02
  2.57330796E-02  7.26866402E-02 -4.56552828E-03  3.91769040E-01 -5.89128268E-01
  4.15462706E-01 -1.04282784E-01 -4.60629994E-02  8.70116454E-02  2.80492790E-01
 -4.30209392E-01  2.67495541E-01 -6.23322452E-02  2.75535107E-02  4.48475629E-03
  2.67633449E-01 -4.58452887E-01  3.39232302E-01 -9.23590650E-02 -1.05569142E-02
 -4.00582969E-02  1.14244752E-01 -1.13129806E-01 -5.97386415E-02  2.27765926E-03
 -2.09541522E-02 -1.30107672E-01  1.08594775E-01 -7.00340454E-03  4.17980672E-02
  1.82467647E-02 -4.65481279E-01 -3.76005604E-02 -7.46100609E-02 -6.41353221E-02
  4.42240213E-03 -4.03638650E-03 -2.13292875E-01  8.64909890E-02  7.56175935E-02
 -5.80519776E-02  1.63482399E-01 -4.57444451E-02  2.00051186E-02 -8.89586590E-02
 -3.55689150E-01  1.13602539E-01 -4.30786408E-02  2.73600376E-02  3.84159300E-01
 -1.11343480E-01  5.93225820E-02 -3.93843083E-03  1.59545151E-03 -1.27798174E-03
 -2.90427817E-02  1.93853452E-02  1.66664782E-01 -1.27921672E-01  2.01533175E-01
  8.91984270E-02  2.23819031E-02 -1.92472162E-01 -4.48055214E-01 -2.19910229E-01
 -4.77832193E-02  6.84833745E-02  4.93367434E-01  1.63560134E-01  6.00843050E-02
 -5.00176941E-03  2.95941360E-04 -4.62211024E-04 -3.79091655E-03 -1.17797807E-02
 -4.19159291E-01  4.78498619E-01 -5.74846186E-02 -3.69723476E-01  7.19563470E-03
 -2.43783465E-01  1.74366748E-01  9.77871968E-01 -2.08434637E-02 -3.71213684E-02
 -6.06154129E-01 -4.25802651E-01 -7.12612136E-03  1.55513184E-01 -1.10483188E-02
 -6.36844395E-02  2.64521627E-01  2.07704201E-01 -2.62915981E-01  2.41395502E-01
 -2.53914917E-01  1.44169361E-01  1.20082219E-01 -1.28408274E-01  7.36884584E-01
 -8.25688877E-01  1.03434973E+00 -1.20067585E-01  4.91999941E-01  2.55921647E-02
 -1.58991214E-01  1.40901911E-01 -1.18983051E-01  1.19093850E-01  7.25347216E-02
  8.18279740E-02 -9.29795606E-01  1.06041269E+00  8.07392450E-02 -9.16085522E-02
  1.31046657E-03 -4.13262738E-01 -2.02576780E-01  2.41896994E-01 -2.79785302E-03
  2.32675449E-02  1.60752285E-01  3.87728173E-02  8.32771034E-03  2.50605001E-02
  2.72661963E-04  7.18686883E-03  1.91796924E-02 -2.57509390E-01  1.75971642E-01
 -1.63304296E-01 -7.57331444E-03 -4.40931212E-02 -2.59887270E-03 -8.04664108E-02
 -4.46059577E-03  1.43130269E-01  6.20314816E-03 -3.33220840E-02  1.40054036E-02
 -2.49269502E-02 -1.25557325E-02 -3.39168573E-03 -1.67592711E-03  1.77499685E-03
  4.78541834E-02 -2.84706340E-02 -7.53420965E-01  6.93252793E-01 -1.94420566E-01
 -9.77732913E-02 -2.32796466E-03  3.23799623E-01  4.55834828E-01  2.45331193E-01
  4.86381053E-03 -3.00205216E-01 -5.20818983E-01  3.77511479E-03 -3.28663642E-03
 -3.04068944E-02  1.16980138E-03  1.03306261E-03 -8.86116814E-02  6.23285575E-02
 -1.23003743E-01  1.41747378E-01  4.06864489E-02  2.88803087E-01  7.29495967E-03
 -1.09530162E-01 -3.42428364E-02 -8.00938366E-01 -2.10887171E-02 -6.42584376E-02
 -5.66782618E-01  2.28546660E-01 -7.63452540E-03 -3.63926324E-01 -7.25691080E-03
  4.01990416E-02  5.15529721E-03 -2.39900500E-01  4.10880997E-01 -4.30180375E-01
  6.37530899E-01 -1.61123660E-02 -1.83356591E-01  2.22740817E-01 -4.69897317E-01
  4.27302440E-01 -5.76303667E-01  1.98226607E-01 -3.24028089E-01 -1.65514580E-02
  3.85776465E-01 -3.98368356E-01  6.02508667E-01 -3.94169355E-03 -1.46669488E-01
 -2.28062074E-01 -1.19083071E+00  1.37780047E+00  1.17077824E-01  6.32497171E-02
  7.86511208E-04 -5.53595746E-01 -2.68984721E-01 -1.76555281E-01 -1.80266157E-03
  3.54759213E-02  6.50660823E-02 -9.18566374E-03  6.05082119E-03  1.41366461E-01
 -1.13198227E-04 -4.26274339E-03  9.69286182E-02  1.53652528E-01 -8.38643101E-01
  7.91202198E-01 -1.82625242E-01  1.24913286E-01 -1.73309431E-03  2.59983194E-01
  4.22288809E-01 -3.02244785E-01  3.68978131E-03 -2.37604744E-01 -4.19370616E-01
  4.79283128E-02 -3.43962014E-03 -5.61710445E-02  4.25955548E-04 -3.27244059E-04
 -8.44042374E-02 -7.61348532E-02 -1.08866992E-01  1.01616779E-01 -5.71941731E-02
 -4.89300273E-02 -2.06326569E-03  2.29396077E-02  1.10444330E-01  8.44461933E-02
  4.87798241E-03 -7.71229764E-02 -4.31176424E-02 -1.16354390E-01 -9.36631330E-03
 -2.98133381E-02 -1.32694190E-03 -1.19832786E-03  3.05472020E-02  5.12368777E-02
 -4.52235433E-01  5.60473786E-01 -2.84644817E-01  1.17897449E-02  5.19740457E-05
 -4.13166584E-01  6.26320595E-01 -3.24682314E-02 -1.22480254E-03  7.21456973E-02
 -1.69238291E-01 -1.78892492E-02 -5.10618803E-03  9.97309870E-02 -1.44991287E-03
  7.12050487E-05 -1.94985387E-01  6.87359217E-03 -1.05306674E-01  1.27334462E-01
 -6.11753442E-02 -1.82785612E-02  1.80575658E-03  3.82884202E-03 -1.24763209E-01
  1.35624862E-01 -1.04672856E-01 -1.07896275E-02 -1.38370329E-02 -2.10555077E-04
 -1.02759113E-01  1.26990634E-01 -5.59128956E-02 -1.89170819E-02  6.93090105E-04
 -5.42877014E-03  7.65515813E-01 -9.43834119E-01 -1.37839524E-01  5.10237999E-03
  1.84937438E-04  5.83657861E-01  2.80626403E-01 -1.18901769E-02 -1.42632634E-04
  5.67912744E-02  1.56892190E-01  6.39613177E-04  3.24921159E-03 -2.25447395E-01
  2.76170934E-04 -2.65544672E-05  1.02851311E-01 -1.95451825E-03 -1.31425523E+00
  1.37193053E+00 -7.62939476E-03 -4.26654759E-02 -5.28311714E-04 -1.44485758E-01
  3.04482843E-02  7.80533762E-02  1.18907216E-03 -3.36938684E-02 -1.74385173E-01
  8.01517654E-02 -1.49710329E-03  5.72367267E-02  1.50498394E-04 -2.52881144E-04
  2.93286625E-02  6.11296216E-02 -1.27273317E+00  1.32856907E+00 -6.23429674E-03
  4.41201159E-02 -5.50960431E-04 -1.38550953E-01  2.86334979E-02 -8.33963309E-02
  1.24525242E-03 -3.47413282E-02 -1.85841135E-01 -6.82456930E-02 -1.57654815E-03
  5.86987098E-02  1.59642724E-04  2.42995614E-04  2.08418749E-02 -6.59417005E-02
  3.38393142E-02 -4.22363399E-02  1.66989332E-02  1.57902780E-01 -4.83014323E-04
  3.46528823E-02 -3.85186311E-02 -4.91217908E-01  1.71078042E-03 -5.81966199E-03
  4.49030086E-02  7.25709517E-02  3.06652283E-04 -1.76126545E-01  2.09574853E-03
  3.78183450E-02 -1.01503501E-01 -1.47274242E-01  1.78852888E-01 -1.62156130E-01
  3.72855426E-01 -8.18506505E-02 -9.16743761E-02  1.16913892E-01 -3.13929752E-01
  2.69460085E-01 -6.76060735E-01  1.34225997E-01 -2.80516130E-01 -1.46342229E-02
  1.42800475E-01 -1.30978777E-01  2.96247328E-01 -6.45763447E-02 -6.19175720E-02
 -1.00667865E-01  2.37687814E-02 -2.98848996E-02  8.98949673E-03 -9.16481352E-02
  4.53920950E-04  3.84022040E-02 -1.74918945E-02  2.75730969E-01 -9.77723329E-04
 -1.90867157E-03 -1.72694115E-02 -5.01989669E-01  1.69950337E-03  1.27173190E-02
 -2.43963735E-04 -3.49344291E-03  1.52332753E-02  1.36621389E-01  1.40361755E+00
 -1.48352188E+00 -1.55926711E-03  4.90154200E-02  6.04144421E-04  2.86664500E-01
  7.62574073E-03 -1.20268869E-01 -1.53773089E-03 -5.13213182E-02 -4.48698997E-02
  1.83121864E-01  3.82154320E-03  2.37838470E-02  9.11793370E-04 -8.66698457E-04
  2.41595134E-03  3.37491930E-02 -1.44084880E+00  1.52292173E+00  2.91747719E-03
  3.84085143E-02 -9.94457165E-04 -2.92978237E-01 -1.16347075E-02 -9.26375156E-02
  2.43750605E-03  6.31835637E-02  6.59868247E-02  1.23962003E-01 -5.18731904E-03
 -2.36515033E-02 -9.49406405E-04 -7.85544873E-04  1.58418638E-02  2.86831576E-02
  7.76079187E-01 -1.00575514E+00  3.37317872E-01 -3.75389198E-02 -3.69514318E-02
  1.02969140E+00 -8.08613616E-01  1.48815780E-01  1.27921759E-01 -8.26637315E-02
  8.81563644E-01  1.72876286E-01  3.19467647E-02  1.24998807E-01  5.44930068E-02
  5.27472647E-02  1.41177582E-01  8.94845238E-02  4.00580933E-02 -8.21052586E-02
 -9.50805063E-02 -6.41954778E-02  7.55569101E-02 -1.10881087E-01  2.09390928E-01
 -1.47336980E-01  2.38577931E-01 -8.61112609E-02  1.27926546E-03  1.19690738E-03
 -1.09027682E-01  1.62801538E-02 -4.52087346E-01  3.68736019E-03  1.27424440E-01
  2.44183758E-01 -3.98087031E-01  5.17920173E-01 -1.74291087E-02  7.67521625E-03
  4.29084884E-02 -5.79463669E-01  1.52794244E-01 -1.47164338E-02 -9.51535572E-02
  2.30950693E-01 -9.89162394E-01  2.86334872E-02  1.76915404E-01  7.14834305E-02
 -9.60307829E-03 -3.65501526E-03 -3.06780806E-01  3.65812465E-02 -6.01376816E-01
  6.73426799E-01  2.11654396E-01  1.77470650E-02 -2.08589298E-02 -3.39759394E-01
 -5.18474776E-01 -3.63460445E-03  4.90635412E-02  2.25530443E-01  8.11858261E-01
 -8.04184303E-02 -7.74882423E-02 -5.47524629E-02  2.20029710E-03 -5.62721173E-04
 -4.46394011E-02 -3.58686566E-02 -7.21657552E-01  8.08163978E-01  2.15398452E-01
 -5.94737967E-03 -2.45217749E-02 -4.02734479E-01 -5.33384310E-01 -2.66719837E-02
  5.79642402E-02  2.67447229E-01  8.36890135E-01  1.00905237E-01 -9.38515987E-02
 -5.99492138E-02 -1.50076823E-04 -1.55042675E-03 -3.65621490E-02  4.66711691E-02
 -1.13795743E-01  1.48830220E-01 -4.81498276E-02  4.67281776E-03 -2.58390485E-01
 -1.56802595E-01  1.13267343E-01 -1.96162134E-02  8.75701115E-01  9.94251056E-03
 -1.42000386E-01 -2.58018519E-02 -4.95789851E-02  6.02443565E-02  3.30800602E-01
  4.44425824E-01  1.97045061E-02 -1.54730593E-02  4.59923267E-01 -3.09788482E-01
  1.24357643E+00 -2.58810125E-01 -2.82315918E-01  4.09213322E-01  3.93713451E-03
  3.75460610E-03  5.79817289E-02 -5.15132112E-03  3.84035261E-02  2.62985690E-02
 -4.90125596E-01  3.63481446E-01 -1.25790787E+00  2.86619086E-01  2.16456409E-01
  4.17113176E-01  3.00669137E-02 -3.96586224E-02 -6.88002014E-03 -1.30442817E-03
  3.76316571E-01  4.64923683E-02  2.72678999E-03  2.58321472E-03 -8.34651935E-01
 -2.99071686E-02  1.21810118E-01 -3.01980402E-03  1.66001243E+00 -1.00789937E-02
 -6.90505137E-02 -2.94109310E-02  4.42305438E-02 -6.43248692E-03  7.21567183E-02
 -8.20211374E-02 -2.84066850E-02 -2.73577942E-03 -2.01779497E-01  4.61472799E-02
  7.00375509E-02  1.63809733E-03  4.76185284E-01 -3.12896730E-02 -1.08423577E-01
 -2.83041907E-03 -7.58601724E-01  5.39032602E-03  1.69362482E-02 -2.60752964E-03
  1.45506172E-03  1.83395372E-03  9.13317080E-02 -1.03818389E-01 -2.95076899E-02
  1.82783245E-05 -2.33268167E-01  5.76796851E-02  7.36898985E-02  5.51469599E-03
  5.52774132E-01 -3.83323160E-02 -1.12265715E-01 -1.91040343E-03 -8.97746305E-01
  6.01375477E-03 -2.68643936E-03 -1.41325929E-02  3.93887933E-04 -2.35149642E-03
 -4.50590888E-01  6.98528295E-01 -2.44918973E-01  3.90720359E-02  4.88261147E-03
 -1.02141659E+00  5.87244398E-01 -4.62683879E-02 -1.00637712E-02  5.05767529E-01
  5.92994542E-01  3.84147964E-01  5.12513759E-02  3.05257701E-01  3.78828398E-03
 -9.50197037E-03 -4.28001007E-01  1.09626500E-01 -3.21977491E-01  6.04966430E-01
 -7.27903373E-01 -1.21541393E-01 -5.32120504E-02 -8.02133554E-03 -3.32540372E-01
  8.30454575E-01 -2.51903810E-01 -1.66364464E-01  1.53332584E-01  2.91445520E-03
 -3.10144910E-01  5.80622335E-01 -7.11182154E-01 -1.30670445E-01 -5.08457088E-02
 -4.11568871E-03 -3.64766165E-01  5.57384540E-01 -6.78622563E-01  1.57827751E-01
 -5.86289480E-03 -8.52008632E-01  1.89829497E+00 -4.53594115E-01  1.33426547E-02
  6.17202284E-01 -7.22261375E-01  2.04381186E-01 -4.63494781E-02  1.75974105E-01
  5.38585173E-04 -1.74295047E-04  9.61403838E-01  7.13833230E-02  2.01257603E-01
 -2.94907724E-01 -4.95461576E-02  2.72712717E-01  4.81832122E-03  3.75776850E-01
  1.79956054E-01 -8.17305405E-01 -1.24749856E-02  1.85777592E-01  3.81600788E-01
 -3.67096362E-02  1.99064645E-02 -1.80303692E-01 -9.60395421E-04  5.12680776E-04
 -2.12597997E-01 -2.59004581E-01  6.48883387E-02 -9.36758802E-02 -1.12126621E-02
 -1.60779014E-01  5.77652343E-03  7.02210050E-02  5.91916659E-02  4.68723189E-01
 -1.47935412E-02  3.63771753E-01  5.21299736E-01  1.11611064E-02  2.42897883E-02
 -1.33680980E-01 -5.31306483E-04  2.02271740E-05 -6.89461034E-02  2.22373579E-01
 -4.27089883E-02  7.00589377E-02 -2.41289727E-02 -8.22592247E-02  2.99179040E-03
 -9.03682365E-02  5.92618229E-02  7.51081032E-02 -5.35200110E-03  1.81423130E-01
  3.88099091E-01 -9.54520519E-01  3.85294092E-02 -9.09845730E-02  4.39326344E-03
  3.65053347E-02 -2.07837642E-01 -1.81064360E-01 -3.25750117E-02  2.30748886E-01
  4.76771907E-01 -1.43684484E-01  8.80023657E-03  1.08065814E-01 -1.02243689E-01
 -1.45132881E-01 -1.33664056E+00  1.14963173E-01 -2.35560813E-01 -2.19588810E-02
 -3.61716075E-02  1.86296609E-01  3.21132567E-01 -1.24757686E-01  4.47011167E-02
 -8.75643172E-02 -6.64498891E-02  1.07315171E-01 -1.70867834E-01 -8.09793214E-01
 -2.56066263E-03 -1.92585775E-01  5.16685271E-01  2.50682320E+00  6.12231674E-03
  2.57471838E-01 -2.57261328E-01 -1.24541409E+00 -2.47645278E-02  2.88683207E-02
 -6.58040987E-04  2.43360347E-03  1.12063205E-01 -8.88436602E-01 -2.40267220E-01
  3.83306702E-01  1.49902269E-01 -2.25348188E-01  4.78573791E-03 -6.67897585E-01
 -4.64654609E-01  7.49136974E-01 -1.20915397E-02  2.91491945E-01  4.00211714E-01
  2.67166854E-01  2.24248287E-02  1.43851285E-01  8.18995980E-04 -1.37213448E-03
  2.89969071E-01  1.56917031E-01  2.53283115E-01 -4.02710225E-01 -1.41733664E-01
 -3.13618341E-01 -7.45491688E-05  6.57636880E-01  4.71734597E-01  1.00265411E+00
 -2.66070707E-04 -6.58106021E-02  4.88507308E-02  2.32195110E-01  3.21234645E-04
 -2.20587961E-01 -1.30240733E-03 -9.73192175E-04 -2.89705124E-01  3.18387060E-01
  3.25497310E-01 -5.88238841E-01 -6.27947837E-01 -1.99352928E-02 -1.66901116E-02
  1.69105948E+00  1.96678634E+00  8.12684500E-02  5.04478888E-02 -1.48489149E+00
 -1.14985249E+00 -8.91866063E-02 -1.08325964E-01  3.68287706E-01  6.25503937E-04
 -3.14335295E-03 -6.75606455E-01  6.47020590E-02  3.03600452E-02 -6.73703374E-01
  8.53287508E-01  1.25615545E-01  2.48654671E-01 -3.69942743E-01  1.63457116E-02
 -5.89420995E-01  7.54242044E-01  1.26354067E-01 -3.98371213E-01 -1.66147091E-02
  3.10640632E-02 -6.62722399E-01  9.74658997E-01  1.17348894E-01  1.96636461E-01
  4.04994918E-01  1.05416902E-01 -1.92745065E-01 -5.27889473E-01  1.80375386E-02
  2.31356135E-03  4.21233422E-01  1.56962680E+00 -5.59456594E-02 -5.93226338E-03
 -3.03616956E-01 -1.30334713E+00  5.11319623E-02  3.83711296E-02 -1.09085886E-01
  3.74432107E-03 -3.75233054E-04  7.11106768E-01 -5.47756842E-02  9.56165739E-02
 -1.74725919E-01  1.04779160E-02  8.21101682E-02 -3.18582828E-03  4.35892839E-01
  1.46006366E-02 -3.16157703E-01  8.47921720E-03 -5.14299849E-01  2.42223416E-01
  1.83761107E-01 -1.77529269E-02 -3.45436884E-02 -1.83123167E-04  8.88798517E-04
 -5.25825837E-02 -9.09247340E-02  9.78219894E-02 -1.78838954E-01 -2.18213561E-03
 -8.42534166E-02 -1.65382291E-03  4.46700887E-01  5.75339882E-02  3.17658342E-01
  4.42126661E-03 -5.35539677E-01  2.04283770E-01 -2.12799123E-01 -1.18441336E-02
 -3.20017215E-02  8.84592187E-05 -9.08000702E-04 -3.35003984E-02  1.00950919E-01
  6.82009043E-03 -1.24851591E-02 -2.14702668E-02 -5.75103526E-03  3.31654718E-01
  3.26805213E-02  6.37916487E-02  1.59360297E-02 -8.33844311E-01 -6.36648334E-02
 -1.33445028E-01 -5.35177103E-02  3.34565803E+00  2.52043017E-02  9.58374491E-02
  1.57052053E-01  8.69928914E-03 -1.69993631E-03 -6.82767761E-02  5.20303289E-01
  1.92529557E+00 -4.65535896E-02 -1.80200600E-01 -2.21110727E-02 -1.44222079E-03
  1.45141805E-02  1.56133967E-01  5.86597830E-03  2.18484695E-02 -3.01645377E-01
  7.95921722E-02 -5.82629425E-01 -1.92604291E+00  6.71595347E-02  1.64389168E-01
  2.20189546E-02  7.85899222E-03 -1.42418375E-02 -3.91311295E-03  1.47470220E-02
 -8.66797377E-02  3.47095914E-02  6.13259161E-03 -5.20233027E-02  2.23429207E-01
 -6.84709179E-02 -1.19313939E-02  2.75058412E-02 -1.36888377E+00  3.50768076E-04
 -1.13565816E-01  1.54318334E-02  5.27370257E-03  1.66098710E-02  5.87427873E-03
 -1.08749619E-02 -7.23313511E-03  5.07898187E-04  1.20626066E-01  2.69187034E-02
  2.21535829E-02 -6.62896184E-03 -3.27879102E-01 -2.20181534E-02 -3.13760127E-02
 -1.78116568E-02  6.54626552E-01 -1.31161394E-03 -1.14654542E-03 -1.64865708E-02
 -6.67257797E-03 -2.56674423E-03  2.91198525E-03 -5.57366386E-03 -4.80944068E-03
  7.26094568E-03  6.12952139E-02  2.00176821E-02  1.31634229E-02 -2.05945236E-02
 -1.71060469E-01 -4.47359150E-02 -4.55859439E-02 -6.99822488E-03  4.29832247E-01
  8.02672723E-03 -1.19224135E-02  1.99343724E-02  3.84007690E-03 -8.42030421E-03
 -2.07734937E-02  3.76543704E-02  1.16465330E-02  4.02508677E-01  7.04124217E-03
 -9.95648004E-02 -8.03271396E-02 -1.24253722E+00 -2.24917085E-02 -3.02732204E-01
 -5.36096222E-01  3.21837375E+00  4.63065828E-02 -9.43730430E-02 -1.50268709E-03
  4.95536981E-03  8.07530200E-02 -5.22656013E-02  5.45714233E-02 -3.78153898E-02
 -9.40194714E-01  8.64840563E-03 -2.94114211E-01  2.78764467E-02 -1.47123146E-01
  5.26873184E-01  2.25551704E+00  4.44782425E-02 -4.26460942E-02  1.00066505E-02
  4.50019307E-02 -3.10809864E-03 -7.80611017E-01  1.09906222E-02 -2.96155556E-01
 -4.93611133E-02  2.24894405E-02 -4.26960141E-02  1.45256884E-02 -4.69667919E-01
 -9.11384441E-04  1.38435294E-01 -5.67814626E-02  1.77108667E+00  2.47386925E-03
 -4.28324988E-01 -1.14560185E-01 -9.10492736E-01 -1.68722256E-02  4.07183671E-02
 -1.39465197E-03 -3.93630507E-04 -1.36690090E-01 -5.69546321E-01 -1.34539144E-02
  2.25259195E-02 -1.81952419E-02 -1.38934209E-01 -3.52956900E-03  7.76156266E-02
  1.92178788E-02  4.81550534E-01  9.56806263E-03 -7.48801818E-01 -5.76512163E-01
  5.34409299E-01 -9.79161505E-03  1.89622424E-01 -7.91212586E-04 -1.44416546E-03
  1.95380282E-01  2.04168798E-01  3.33514675E-02 -6.29599561E-02 -3.91694046E-02
 -9.26641121E-02  5.50675728E-03  6.03088919E-02  1.49967709E-01  3.50413258E-01
 -1.51151848E-02  4.97611171E-01  2.93173612E-01  5.61145721E-01  2.26682034E-02
 -1.52907995E-01  6.01034727E-04 -9.34358120E-04 -1.57392164E-01  1.96061062E-01
  1.49758868E-01 -2.94388036E-01 -3.38527822E-01  2.03394939E-01  1.62583726E-02
  7.06228935E-01  1.53573658E+00 -8.76978794E-01 -6.71235174E-02  1.50780649E+00
  1.94417799E+00  4.58007795E-01  5.60627198E-02  1.13628015E-01 -1.85197617E-02
  2.45468230E-02 -8.35911369E-01 -1.76532094E-01  3.04214568E-01 -1.64050887E+00
 -5.87562588E-01  3.69859167E-02  3.31998584E-01 -4.89513707E-01  2.66595495E-01
 -2.52916175E+00  2.86527654E-01  2.20185150E-01 -1.12802938E+00 -6.56799723E-02
  3.07425170E-01 -1.61325594E+00 -6.37180674E-01  2.86186681E-02  2.62049175E-01
  5.13041949E-01 -8.41647002E-02  1.73548752E-01 -1.06596199E-01  9.04539094E-03
  1.45006512E-03 -7.23567249E-01  4.44990859E-01 -5.67037342E-02 -4.65156386E-03
  1.27156961E+00  2.54456392E+00 -2.74604773E-01  9.03539631E-03 -1.01310305E-01
 -8.73325140E-04 -9.09928989E-04  5.59306659E-01 -5.33597486E-03 -1.82200367E-02
  4.35262758E-02 -1.05199194E-01  2.06479250E-02 -2.04662120E-03 -2.15779550E-01
  3.35360182E-01 -8.59931555E-02  5.86487170E-03  1.07644742E+00 -5.99604802E-01
 -5.25310878E-01 -1.18613671E-02 -4.56649338E-02 -9.54691610E-04  6.08404760E-04
 -1.06158524E-01 -6.56530585E-02 -1.35301038E-02  3.22891804E-02 -9.91758321E-02
 -6.48753510E-03 -1.55830699E-03 -1.65205530E-01  3.12608878E-01  3.37471226E-02
  4.51439164E-03  8.01032497E-01 -5.38500990E-01  5.02574544E-01 -9.83519119E-03
 -4.37946746E-02 -1.03615597E-03 -8.57432499E-04 -6.17486991E-02  7.38515182E-02
  1.20878142E-03 -2.32636319E-03  1.10544995E-03  1.48965083E-02 -7.03487146E-01
 -2.14885676E-03 -5.43500778E-03 -7.15079387E-02  3.39698906E+00  2.10728306E-02
  1.69712905E-02  4.76216494E-03  6.16597574E-01  2.06422419E-01  1.00288371E+00
  1.34119679E+00  1.02452743E-01 -2.99173062E-02 -7.44211868E-02  2.98923745E+00
 -1.02527203E+00 -5.96525244E-01 -9.36123076E-01  1.06955051E+00  2.95847935E-04
  1.24082409E-01 -4.40233855E-02 -2.54110888E-02  7.77529448E-02 -2.69169817E-01
  9.22844028E-02 -3.20016067E+00  1.06346003E+00  6.14313706E-01  8.13731254E-01
  1.27354433E+00 -7.26246916E-04  1.58677944E-03  4.16775564E-03  1.47310119E-03
  9.65824989E-03 -9.61368839E-03 -1.25019725E-02 -8.44527167E-03 -1.14157549E-02
 -1.82466498E-02  7.68889666E-02 -1.14696741E-02 -4.85422101E-01 -4.48529060E-03
 -1.43281658E-01 -2.73664366E-02 -2.84406332E-03  6.24822682E-03 -1.68757715E-03
  3.92261240E-03 -3.57059712E-03 -1.48125808E-03  1.49101800E-02 -1.57623294E-02
  1.04590872E-02  4.88772590E-03 -4.38044841E-02  5.44998863E-02 -2.16830132E-02
 -2.49205188E-02  1.22620384E-01 -3.10228557E-04 -2.60184989E-05 -1.07223378E-02
 -3.38031011E-03  1.40728628E-03 -1.26215786E-03  2.87020181E-03 -3.33705010E-03
  3.35792091E-03  1.45650081E-02 -9.77798958E-03  9.14386347E-03 -1.16249554E-02
 -4.38832407E-02  2.44143791E-02 -2.76740733E-02  1.84886835E-02  1.16311199E-01
  1.71115158E-03 -5.29893107E-03 -5.32433119E-03 -6.24235818E-04 -3.15736865E-03
  2.78618005E-02 -5.60908789E-02 -7.03971973E-02 -6.47529560E-01 -9.73072269E-03
  1.05866216E-01  3.28170869E-01  3.25583913E+00  4.93475031E-02  2.08549967E-01
  3.44206706E-01  1.07257569E+00  2.97949775E-02  1.14748392E+00  5.84642656E-03
 -2.07759203E-01  5.26780507E-01  1.02465502E+00  1.23860511E-01 -2.38320674E+00
  4.53895744E-01  4.17307317E-01  3.61941970E-01 -1.00092434E+00 -3.28243280E-02
  3.22106665E+00 -8.94223215E-01 -6.57643910E-01  1.50713858E+00  9.62690405E-02
  1.18898623E-01 -2.09802271E+00  3.69674586E-01  3.50651081E-01  1.57437724E-01
  9.34874372E-01 -1.76331398E-02  3.75515692E-02  2.49828799E-03 -9.76162335E-02
  6.47687903E-04 -1.76594171E-01  2.59759285E-02  5.06067938E-01 -1.66194288E-03
 -2.52655062E-02  8.70748112E-01 -1.14207466E-01 -7.49841118E-03 -3.26404413E-02
 -3.00775812E-03  6.97762870E-03  3.04453443E-02 -3.23626722E-01 -4.54578637E-03
  9.40857790E-03 -5.87734579E-02 -6.70849906E-02 -1.04040540E-03  8.67303324E-03
  1.68459120E-01  2.33565568E-01  3.04522020E-03 -1.41986611E-01 -5.59277919E-01
 -5.86494520E-02 -4.82561190E-03  6.08444556E-02 -1.09299704E-03  1.36758626E-03
  4.52571392E-02  5.71174804E-02 -1.93346825E-02  4.71840037E-02 -1.81852019E-02
 -3.86392697E-02  2.41459193E-04 -2.43398273E-01  6.80467277E-02  1.39757046E-01
 -7.94716608E-04  9.91053221E-01  9.39860509E-02  4.04680138E-01  2.23870190E-03
 -6.69297478E-02  6.61987561E-04  9.52934909E-04 -9.24348566E-02  6.91665043E-02
  1.42498596E-02 -2.43337665E-02  6.73963313E-02 -3.59552953E-02 -5.26230198E-03
 -2.20210858E-01 -6.51615167E-02  2.45233913E-01  3.65755978E-02  3.02046647E+00
  4.91029004E-01  4.95398252E-01  6.03448762E-02  9.52214715E-02  1.17671779E-02
 -3.41603781E-03  4.85266576E-02  9.29627229E-02  1.43361716E-01 -9.46146802E-01
 -5.22310906E-01  8.11402341E-02  1.18636995E-01 -2.70581113E-01  9.66908750E-02
 -2.99259078E-01 -2.87814688E-01 -5.28101773E-02 -6.36970963E-02 -7.53636718E-03
  1.47284049E-01 -9.97855917E-01 -5.51621892E-01  9.46711233E-02  9.71757242E-02
  3.03348156E-01  1.24366965E-01 -2.66233262E-01  2.13197875E-01 -1.22820055E-02
  1.34554166E-03  7.53616704E-01 -1.00659560E+00  7.47942531E-02 -2.26179286E-03
  4.31090151E+00 -2.05140733E+00 -3.39432542E-02  2.94249249E-03 -5.26258984E-01
 -7.46227976E-03  5.84857846E-04 -5.17170960E-01  1.01064125E-02  6.96609092E-02
 -1.81525045E-01  7.27858663E-02 -3.33473923E-02 -1.09765841E-03  9.37142587E-01
 -2.37024812E-01  1.16780449E-01  3.38820831E-03 -3.68444703E+00 -6.86656503E-02
  1.68034107E+00 -3.69124577E-03  1.66841704E-01 -3.47874096E-04 -4.90679274E-04
  2.06426298E-01  1.65049401E-01  6.93808041E-02 -1.80681399E-01  8.83221444E-02
  1.33597195E-02 -8.83881243E-04  9.25211443E-01 -2.86135879E-01 -4.98366949E-02
  2.71564618E-03 -3.69055303E+00 -1.11298490E-01 -1.67445669E+00 -2.41893428E-03
  1.48355426E-01 -1.10688590E-04  5.30090286E-04  1.67961345E-01 -1.90594576E-01
  1.19491961E-02 -2.73338829E-02 -4.89506534E-03  6.32994046E-02 -1.19603668E-03
  1.22462654E-01  4.88610556E-02 -3.32272442E-01  8.64891558E-03 -5.13513510E-01
  3.43027762E-01 -2.17213811E+00  1.28816399E-02 -9.74336118E-02  3.53439273E-03
  3.21671979E-02 -1.30499743E-01  2.45119290E-02 -2.13256744E-02  4.63887704E-01
  1.28165260E-01  5.27546479E-02  9.63458555E-02  1.74872285E-01  7.97998910E-02
 -9.79304777E-01 -3.07936238E-01 -3.02550753E-02 -2.25706367E-01 -3.00368491E-02
 -1.20621180E-02  3.40738598E-01  9.08176193E-02  5.55731941E-02  1.40170779E-01
 -1.38256306E-01 -4.71889559E-03  1.18497486E-02 -6.91451030E-03 -3.47485282E-01
  2.23458036E-04 -1.07367504E-01  4.95444137E-02  1.87056600E+00 -5.35705492E-04
  8.26022225E-01  6.53420886E-01  5.45566631E+00 -2.59980008E-03 -7.21118193E-02
 -8.37128538E-04  4.40242198E-03 -5.41154947E-02 -7.86572366E-01  6.38530704E-02
 -1.74575941E-01  7.23058619E-03 -1.38277787E-01  1.57186852E-03  1.02935518E+00
 -3.83150102E-02  5.02732185E-01 -4.50664934E-03 -5.34801401E+00 -1.15496573E+00
  1.30559281E+00  1.19292231E-02  1.47742728E-01  6.08769660E-04 -8.38543579E-04
  2.29923416E-01  2.35235644E-01 -6.51063111E-02  1.77989719E-01 -1.53595228E-02
 -1.37778450E-01 -1.44563561E-03 -1.02812954E+00  6.86646163E-02  4.90041768E-01
  4.12012562E-03  5.15332419E+00  1.16700691E+00  1.10259206E+00 -1.04270576E-02
 -1.45823131E-01 -6.68736393E-04 -6.53797190E-04 -1.71338055E-01  2.57791894E-01
  4.77122468E-03 -1.16616551E-03 -1.57831071E-02 -4.42424790E-03 -2.60752151E-03
 -7.92901152E-01  3.12220886E-01 -3.54278017E-02  3.39415548E-04  1.03439794E+01
 -3.00181207E+00 -3.55270351E-01 -4.47799591E-02 -4.74565032E-02 -4.52426005E-03
 -3.79244654E-04 -1.86156907E-02 -8.20647059E-03  2.54968464E-01 -1.82187986E+00
 -4.80148830E-02  1.87774802E-01  2.25367860E-01 -2.79667378E-01  2.95449798E-01
 -2.10621555E+00 -3.75102103E-01  2.43316731E-01 -4.44025264E-01 -2.54926714E-02
  2.50050539E-01 -1.79993623E+00 -2.56785263E-03  1.68434567E-01  1.83468557E-01
  2.98032361E-01  3.66553415E-02 -9.22112143E-02 -5.65080037E-02 -4.25958011E-02
  2.57678145E-04  9.64361892E-01  3.33097756E-01  2.26655856E-01 -1.58801820E-03
 -8.24052156E+00 -4.47192212E+00  9.93489058E-01  1.58535437E-02  5.41224034E-01
  7.83922953E-04  7.48953615E-04  2.64095105E-02 -9.95314803E-02  1.03847861E-02
 -2.91170252E-02  2.56442997E-02  1.26493104E-02 -1.66429122E-03  9.88980123E-02
 -7.33071235E-02 -7.71985292E-02  5.09815483E-03  2.19755856E-01  6.68983510E-01
 -1.20271872E-01 -1.17956377E-02  6.09728046E-03 -9.55778257E-04  9.04791697E-04
 -1.64074162E-02 -7.17385927E-02 -6.37053195E-03  1.85958137E-02  2.87638246E-02
 -6.46179808E-02 -1.82898625E-03 -1.93582614E-01 -7.78272591E-02  2.53867058E-01
  5.54534198E-03  1.71544872E+00  1.08706020E+00  2.93568760E-01 -1.35238162E-02
 -3.24288671E-02 -1.05608784E-03 -8.96229766E-04 -3.55230644E-02  1.40600002E-01
Total SCF Density                          R   N=        4095
  6.58047488E-01  5.59300400E-01  4.87835647E-01  1.34258246E-03  2.26310613E-03
  8.26015121E-02  4.47974191E-04  6.86186394E-04  7.08977238E-04  8.31987529E-02
  1.06855909E-04  1.64167652E-04  1.34036834E-04 -2.58229316E-05  8.16825111E-02
 -7.89120976E-02 -1.37693908E-01 -8.06651498E-03 -1.61257414E-03 -4.15810554E-04
  4.09696079E-01  5.99962924E-03  8.25900581E-03  1.22412176E-01  1.16443836E-03
  2.57021971E-04 -2.09969395E-02  1.81903955E-01  5.04328813E-04  8.06970905E-04
  7.60842212E-04  1.19184001E-01 -4.54260973E-05 -1.93321392E-03  1.25320844E-03
  1.70770149E-01  1.41445261E-04  2.22861556E-04  1.69786326E-04 -4.20581842E-05
  1.17371263E-01 -5.81148316E-04  3.32299944E-04 -7.30601264E-05  1.68697952E-01
 -8.07638697E-02 -1.20792760E-01 -6.31344250E-02 -8.18770544E-03 -2.05744677E-03
  3.04811016E-01 -9.74076505E-02 -1.11093622E-02 -2.82383097E-03  4.15835493E-01
  6.17478726E-03  9.37906503E-03  1.00099488E-01  1.86737912E-03  4.97809661E-04
 -2.52301906E-02  1.46941690E-01  2.35461950E-03  6.70997833E-04 -1.41911761E-01
  1.44830422E-01  3.12379188E-03  5.06247404E-03  1.01087236E-02  8.07813215E-02
 -4.04218742E-05 -1.40063024E-02  1.55902497E-02  1.15603619E-01 -4.22114341E-05
 -3.94593458E-02  1.69496654E-02  8.77316546E-02  5.89160523E-04  9.45844685E-04
  1.80159874E-03 -9.92740911E-05  8.53085546E-02 -2.61042436E-03  2.81027453E-03
 -1.33567905E-04  1.22124115E-01 -7.80487515E-03  3.23071883E-03 -7.19454603E-04
  9.72201371E-02  2.07395442E-04  7.54090236E-06  3.27646249E-03  6.70375857E-03
  1.46091426E-03  8.50544416E-04  4.92140485E-03  9.60372816E-03  2.09818725E-03
  2.04271254E-03  2.50739492E-03  6.26359511E-03  1.50923083E-03  8.25261262E-04
  1.19700874E-05  2.69520350E-05  2.21562876E-05 -5.99245325E-05  5.75043861E-03
 -9.24607687E-05  3.83345068E-05 -8.57954766E-05  8.15233036E-03 -2.74468995E-04
  5.73428812E-05 -7.79797173E-05  6.79735196E-03  1.03936831E-04  7.11805031E-04
  1.88847049E-06  4.51458864E-06 -5.09354282E-05 -1.40288165E-03  8.48500506E-03
 -1.70518529E-05 -7.12015252E-05 -2.01203214E-03  1.21878799E-02 -4.35425178E-05
 -4.32236295E-05 -1.31691067E-03  8.75403044E-03  3.68897794E-05  6.24576913E-04
  9.12505296E-04 -8.06014350E-04 -5.99581428E-04 -7.26200336E-03  4.00284101E-03
  7.07179517E-04 -1.79699333E-04 -1.09243273E-02  5.75728355E-03  1.01465135E-03
 -1.21231189E-03 -6.45673559E-03  3.46454022E-03  6.94790440E-04 -1.21964270E-04
  5.13169646E-05  1.06655750E-05  1.10774945E-03  1.26894798E-04  1.79897082E-04
  8.47373808E-04  6.76430521E-03 -6.06351934E-05 -4.53594620E-04  1.29555657E-03
  9.66402114E-03 -8.54935258E-05 -9.49636301E-04  9.20863008E-04  5.62476881E-03
 -7.43189834E-05  6.09285435E-04 -9.53583628E-06 -1.24149225E-04  2.66704347E-04
  8.61316250E-04 -1.83108296E-02 -2.84236533E-02  2.54179834E-02  3.94314144E-02
 -5.72935569E-02  7.46225521E-02  3.60228264E-02  5.64864129E-02 -8.22702683E-02
  3.58709758E-02  2.76101844E-02  3.84524714E-02 -5.98989329E-02  3.40634676E-03
 -4.27048032E-03 -6.66246170E-03 -1.00119501E-03  3.59445561E-03  8.15245362E-02
 -2.45825909E-02 -3.57782900E-02  3.48920522E-02  5.53175779E-02 -7.77833410E-02
  8.68630734E-02  4.94805094E-02  7.94139333E-02 -1.11698089E-01  3.27865321E-02
  4.09820367E-02  5.31736064E-02 -7.95234826E-02  4.64272575E-03 -5.94466086E-03
 -9.15698141E-03 -1.01173286E-03  5.14294454E-03  1.09249141E-01  1.49099185E-01
  1.62194842E-03  1.43713952E-03  2.71100997E-02  3.16909836E-02 -4.55516743E-02
 -1.07361747E-03  4.02164040E-02  4.51470634E-02 -6.55963440E-02 -3.33704984E-02
  3.63606960E-02  3.25105909E-02 -4.10373125E-02  2.43222966E-03 -3.34958267E-03
 -5.47350063E-03 -7.64191193E-04  3.43772011E-03  5.62098276E-02  7.88922497E-02
  5.57672550E-02  2.12570875E-03  2.78008865E-03  3.87174357E-03 -1.73894309E-03
  2.61406970E-03 -5.84477285E-03  5.87315314E-03 -2.49870455E-03  3.78149577E-03
 -6.78924899E-03  4.80238093E-03 -1.16347960E-03  2.31407920E-03  4.98788568E-05
  1.46867715E-04  3.06262422E-04 -3.95766586E-04 -5.21269527E-05 -2.48048704E-03
 -3.22452039E-03 -1.25243479E-03  4.31232379E-04  3.23971034E-03  4.06963319E-03
 -1.88522024E-03  2.10296397E-03  4.35703519E-03 -7.81311946E-03 -2.59645065E-03
  3.00159319E-03  6.26146627E-03 -4.28246080E-03 -2.07864648E-03  1.89695297E-03
  4.47723095E-03  1.62293520E-04  3.11674211E-04  4.21106507E-04  3.07664453E-04
  1.90103618E-04 -4.15140321E-03 -5.39791451E-03 -2.29341206E-03  1.21298816E-04
  4.97062937E-04 -4.57963119E-03 -5.70464498E-03  3.07090767E-03  4.53351511E-03
 -1.04074015E-03  1.07841518E-02  4.26203436E-03  6.50257720E-03 -1.50098406E-03
  4.20103188E-03  3.83832898E-03  4.42528791E-03 -9.39995132E-04  4.64228397E-04
 -7.42225470E-05 -1.90226025E-04 -1.86928906E-05  4.09291541E-04  5.94757407E-03
  7.95183271E-03  3.56902155E-03 -1.40631467E-04 -2.39020525E-04  7.04981513E-04
 -1.88370352E-02 -2.92895036E-02  2.39248374E-02 -7.03538157E-02 -3.99489571E-03
  7.68660470E-02  3.36586699E-02 -1.00828075E-01 -5.73696858E-03  4.40137441E-02
  2.53960191E-02 -6.64975141E-02 -4.00555657E-03 -4.60624539E-03 -2.55471421E-04
  7.55803161E-04 -5.72664470E-03 -5.76068906E-03 -8.38027515E-03 -1.58720113E-02
 -1.63046244E-02  1.38678751E-03 -4.10136803E-03 -7.62760005E-04  8.21070556E-02
 -2.35575546E-02 -3.41183580E-02  3.83891856E-02 -9.58182051E-02 -5.23026390E-03
  8.17520996E-02  5.47564551E-02 -1.37561099E-01 -7.51130112E-03  2.59971638E-02
  4.70740271E-02 -8.57097608E-02 -5.04299548E-03 -6.58488705E-03 -3.37125909E-04
  1.06808090E-03 -7.80134728E-03 -8.24335281E-03 -1.44283179E-02 -2.59921486E-02
 -1.95816531E-02  2.29222130E-03 -5.31277746E-03 -1.41312328E-03  1.10081797E-01
  1.52549462E-01  3.20056033E-03  3.92950329E-03  3.42142950E-02 -5.57301977E-02
 -3.02556859E-03 -7.82404222E-03  5.09550805E-02 -7.98683872E-02 -4.36363769E-03
 -5.82590695E-02  4.90193207E-02 -3.96697409E-02 -2.18548722E-03 -4.25725225E-03
 -1.81930093E-04  6.30828924E-04 -4.75645499E-03 -5.27322278E-03 -1.51093618E-02
 -2.09136545E-02 -7.92242823E-03  2.79275320E-03 -2.52405639E-03 -1.67806121E-03
  5.76556032E-02  8.49615925E-02  6.90786294E-02  1.74578486E-03  2.21250179E-03
  3.13574014E-03  2.67348917E-03  1.54717945E-04 -4.40631211E-03  4.74460286E-03
  3.79237236E-03  2.21764899E-04 -3.79698751E-03  3.53101331E-03  2.94667009E-03
  2.39625213E-04  3.71812310E-04  7.62242687E-06 -3.08931820E-05 -2.10831887E-04
  2.00550341E-04  1.28500088E-03  1.73161046E-03  1.81416136E-03  1.17184253E-04
  9.28496335E-05  1.16168681E-04 -2.05696636E-03 -2.22406399E-03 -1.09710313E-03
  3.31306437E-04 -5.66747663E-03 -7.08990180E-03  3.45171899E-03 -4.35735782E-03
 -5.03920140E-04  1.34849901E-02  4.75979322E-03 -6.25727331E-03 -7.24741934E-04
  6.60957579E-03  4.09386053E-03 -4.01747430E-03 -5.07860728E-04 -2.26588624E-04
 -3.28461489E-05  1.97674096E-05 -4.89717823E-04 -3.45570194E-04  1.94997036E-03
  2.03584329E-03 -3.67555723E-05  3.72707747E-05 -4.93213858E-04  2.90484002E-04
  7.42715042E-03  9.88284947E-03  4.43103596E-03 -1.42772063E-04  8.79345183E-04
 -3.12761897E-04 -3.86794878E-04  2.18150913E-04 -5.28109927E-04  4.92811302E-03
  7.19613058E-04  3.05149919E-04 -7.57473932E-04  7.08584792E-03  1.95397323E-04
  2.96897861E-04 -4.74074519E-04  5.09420784E-03  5.19064339E-05  3.36734187E-04
  5.20657792E-04  2.09675141E-06 -4.93660715E-05 -3.49443518E-03 -4.78540755E-03
 -2.89697774E-03  1.70708649E-04  2.28893303E-04 -6.22290474E-05  4.18504655E-04
  5.80215202E-04  2.93748885E-04 -7.66513816E-06  3.42422795E-05  3.03352859E-04
 -1.82104212E-02 -2.82607720E-02  2.47043414E-02  3.18833956E-02  6.19680413E-02
  7.41938242E-02  3.50429184E-02  4.56599064E-02  8.89684331E-02  3.45328521E-02
  2.70327155E-02  3.11608391E-02  6.50263492E-02  4.91870629E-03  4.55031492E-03
  5.90985948E-03 -2.66541140E-04  2.86364359E-03 -6.28489611E-03 -1.06133577E-02
 -1.43829761E-02  1.44212237E-03  2.05657838E-03  3.97104794E-03 -8.12203442E-03
 -1.37799966E-02 -1.48427827E-02  1.24434111E-03  1.57292251E-03  3.73523104E-03
  8.13799599E-02 -2.46998739E-02 -3.59758197E-02  3.31643367E-02  4.50084281E-02
  8.46204532E-02  8.74772988E-02  4.69842731E-02  6.45931411E-02  1.21477928E-01
  3.37487496E-02  3.89382597E-02  4.38488253E-02  8.74444167E-02  6.71648249E-03
  6.40233982E-03  8.11064248E-03  3.64679984E-06  4.10704119E-03 -1.08571656E-02
 -1.66008328E-02 -2.17729852E-02  2.28098786E-03  3.11428435E-03  5.16725909E-03
 -1.54689113E-02 -2.48833393E-02 -2.09124296E-02  1.66137616E-03  1.54418289E-03
  5.06734543E-03  1.09171385E-01  1.48692671E-01  1.39972989E-03  1.09195872E-03
  2.52972100E-02  2.57412337E-02  4.95830084E-02 -8.27264098E-05  3.75083007E-02
  3.65917077E-02  7.13145544E-02 -3.04678006E-02  3.39566521E-02  2.88145439E-02
  4.78014057E-02  3.66404588E-03  3.65972224E-03  4.86663500E-03 -1.41558412E-04
  2.79308129E-03 -1.46157211E-02 -2.14656279E-02 -1.22156161E-02  2.55341741E-03
  2.79519289E-03  1.75992529E-03 -1.62769457E-02 -1.91818607E-02 -7.34134475E-03
  1.65957910E-03 -3.55453436E-04  2.92044803E-03  5.59850674E-02  7.79581886E-02
  5.25392625E-02  2.11359809E-03  2.78388386E-03  4.09784885E-03 -1.38951021E-03
 -2.79661953E-03 -5.92907036E-03  6.20917951E-03 -1.99739017E-03 -4.04481487E-03
 -7.19108623E-03  5.12020399E-03 -9.04945507E-04 -2.32552332E-03 -1.75978579E-05
 -1.54573291E-04 -2.78161867E-04 -4.36915639E-04 -2.63863938E-05  1.52538956E-03
  2.44526123E-03  2.77338878E-03  1.93368748E-04 -1.71926064E-04 -2.95234050E-05
  1.41900604E-03  2.36033064E-03  2.84284797E-03  1.34992424E-04  6.26335326E-05
 -1.63688073E-04 -2.46884825E-03 -3.27144566E-03 -1.17094862E-03  4.43641967E-04
  2.62417942E-03  3.29895161E-03 -1.46634712E-03  3.21726103E-03 -3.85875019E-03
 -6.34157808E-03 -2.01779121E-03  4.60326067E-03 -5.54407913E-03 -3.53809122E-03
 -1.60434754E-03  2.94034355E-03 -3.97577226E-03  1.23030566E-04 -2.80151525E-04
 -4.57245135E-04  2.56414668E-04  2.94548290E-04  2.57446659E-03  3.79973343E-03
  3.02416783E-03 -1.71844618E-04  4.42255289E-05 -1.04195372E-05 -4.23707540E-03
 -5.60232268E-03 -2.79332034E-03  1.07563044E-04 -4.32993751E-04 -2.70236402E-04
 -3.35473294E-03 -4.33935346E-03 -1.85025903E-03  1.02018946E-04  4.45862057E-04
  4.96890967E-03  6.19856687E-03 -3.20406954E-03 -4.01862380E-03 -2.15717094E-03
 -1.17525065E-02 -4.43733880E-03 -5.76368027E-03 -3.10220454E-03 -4.79049657E-03
 -3.97833483E-03 -3.97950911E-03 -2.15992721E-03 -4.87611934E-04 -1.46657947E-04
 -1.56876636E-04  2.95264544E-05 -3.61373454E-04 -3.67617671E-03 -4.74310595E-03
 -1.40103321E-03  1.93926631E-05  1.01833931E-04 -6.63942480E-04  2.51013298E-04
  7.30287363E-04  1.36935446E-03 -1.00115816E-04 -3.38348899E-04 -1.37515144E-04
 -6.43435912E-03 -8.55397511E-03 -3.77544675E-03  1.53278269E-04  2.03307434E-04
  7.62709413E-04  3.59119279E-03  5.54986523E-03  1.56551126E-02 -2.20528714E-04
  6.81211782E-05 -1.55919485E-02  2.79572805E-02 -4.17553367E-04  1.21498016E-04
  1.15602114E-02  2.02777116E-03  3.26155354E-03  5.19294175E-04  1.93409201E-03
  1.85593600E-05  4.43541614E-06 -3.77828201E-03  3.65942678E-04  2.58710403E-03
  7.50768320E-04  4.85098340E-03  1.10277121E-03  1.76990566E-04 -4.38447670E-04
  2.50490276E-03  2.46217113E-03  7.39674599E-03  8.82314761E-04 -3.58010901E-04
 -2.39269446E-05  2.59548811E-03  5.29920857E-04  4.43792872E-03  1.14223496E-03
  1.36426207E-04  4.87638329E-04  6.58874257E-01  5.60145380E-03  8.68043837E-03
  2.52509609E-02 -3.17778202E-04  1.18148679E-04 -2.43946903E-02  4.32931713E-02
 -7.31852587E-04  1.69599197E-04  1.35405610E-02  5.61988907E-03  5.11868984E-03
  8.34208583E-04  2.66830097E-03  2.33304094E-05  5.73982841E-06 -5.48148455E-03
  4.97451821E-04  4.21133195E-03  2.09735641E-03  7.43573600E-03  1.69776540E-03
  1.16138767E-04 -4.67413106E-04  4.04336603E-03  4.61441419E-03  1.15760943E-02
  1.36926623E-03 -3.82241313E-04 -2.77849589E-05  4.23013314E-03  1.77827945E-03
  6.76250895E-03  1.75882144E-03  7.48779412E-05  5.11481686E-04  5.60579671E-01
  4.89730577E-01 -1.35234376E-02 -2.14015365E-02 -6.15453189E-02  1.13530604E-03
 -2.19331812E-04  5.86000031E-02 -9.04915836E-02  1.48521918E-03 -3.62595735E-04
  6.00440147E-02 -7.48128940E-02  1.75902817E-03 -3.49278449E-04 -2.88527034E-03
 -1.68938580E-05  1.60576793E-06  5.60945845E-03 -6.80150435E-04 -7.74851161E-03
 -1.41370618E-02 -1.43864074E-02 -3.60615465E-03  3.32622460E-04 -6.89453301E-04
 -8.13262141E-03 -1.46936870E-02 -1.23382252E-02 -3.41407869E-03 -7.33221637E-04
 -6.96819483E-05 -7.64048052E-03 -1.39101174E-02 -1.44988234E-02 -3.64532983E-03
  2.52440104E-04  6.77252293E-04  6.13244364E-04  5.09518873E-04  8.24004834E-02
  5.79534490E-04  9.40793452E-04  2.65141843E-03  9.22410976E-04  1.12017823E-05
 -2.11323266E-03  3.69012317E-03  2.11475056E-03 -4.81840781E-06 -8.36623924E-03
  4.49918748E-03  1.60454541E-02 -4.07641614E-05 -2.50309998E-04 -1.87866673E-07
  4.11711988E-05 -4.86615084E-04 -4.84234494E-03 -1.26635445E-03 -1.67272752E-03
 -9.25444492E-03 -4.20444290E-04 -6.13124950E-04 -1.01250334E-04  2.78264121E-03
  8.64852021E-03  1.86230916E-02  4.94100621E-04  2.28565598E-05  5.96286077E-05
 -9.98785391E-04 -8.90392380E-04 -7.32003210E-03 -3.72615016E-04 -6.32452815E-04
  2.97269153E-05 -5.99311614E-05 -6.47497001E-05  4.49898842E-04  9.25369297E-02
  2.22561177E-05  3.53353669E-05  1.01903609E-04  5.34621629E-06  4.64139614E-03
 -1.49785948E-04  1.61484337E-04  6.25709879E-06  8.15948227E-03  1.98857091E-04
  1.98365796E-04  4.21687427E-05 -4.30265782E-03 -9.98784290E-06 -3.95781136E-03
  6.02519092E-05 -1.87519408E-05  1.48141109E-06 -3.15759449E-04  2.30522130E-03
  1.14777639E-03  5.79110696E-04  1.43980245E-04 -6.43143837E-05 -6.20557290E-06
  1.03314774E-04  8.18409227E-05  5.18216418E-05 -4.29968335E-05  4.18010942E-04
  3.81159375E-04 -2.68241845E-03 -1.28196491E-03 -5.89327153E-04 -9.81166476E-05
 -1.08639187E-04 -1.58415206E-06 -5.42164967E-07 -5.74749811E-05  1.40733638E-06
  6.06683435E-02 -1.47376674E-02 -2.29572756E-02 -7.42886723E-02  3.74770091E-04
 -4.56673487E-04  6.50633765E-02 -1.21755299E-01  1.70556346E-03 -5.34075625E-04
 -2.59979651E-02 -2.30339587E-02 -1.58319910E-02 -2.65033378E-03 -6.42241571E-03
 -5.77620308E-05 -1.41837973E-05  1.41304249E-02 -1.21024434E-03 -1.35372225E-02
 -1.00097698E-02 -2.12815222E-02 -4.68818793E-03  2.61583834E-04  4.72016636E-04
 -1.24493042E-02 -1.63314623E-02 -3.40827364E-02 -3.74872000E-03  3.63781845E-04
  3.51634608E-05 -1.36825139E-02 -9.22917196E-03 -1.92287546E-02 -4.86970220E-03
  2.91361380E-04 -4.84082392E-04 -9.02648720E-02 -1.53977203E-01 -1.74038036E-03
 -7.44545106E-05  9.84762946E-06  4.79088493E-01 -2.39855542E-02 -3.67671711E-02
 -9.38266016E-02  1.32987212E-03 -4.33324175E-04  9.69172063E-02 -1.38234988E-01
  1.76000537E-03 -6.79962104E-04  1.09039097E-01 -1.17794575E-01  4.41613272E-05
 -1.01130990E-03 -4.07679657E-03 -3.91836551E-05 -1.92722194E-06  8.17492964E-03
 -1.02608045E-03 -1.04796789E-02 -2.00993657E-02 -2.33275021E-02 -5.59232119E-03
  3.72514256E-04 -9.36377099E-04 -1.08082253E-02 -2.18684263E-02 -2.23877481E-02
 -5.12108841E-03 -9.21884782E-04 -1.03565825E-04 -1.03932279E-02 -1.96821666E-02
 -2.32500345E-02 -5.67920938E-03  2.76148522E-04  9.00916940E-04 -1.20335355E-03
 -1.53548914E-03  1.21026464E-01  2.93609947E-05 -8.52006108E-05  6.43652758E-04
  1.79127143E-01  1.09316830E-03  1.64964380E-03  3.79270692E-03  3.05134858E-03
  1.69442091E-05 -3.51110920E-03  5.29633704E-03  5.48046472E-03 -4.54609720E-06
 -1.23420913E-02  6.46550144E-03  2.35488128E-02 -3.40006381E-05 -1.79940633E-04
 -9.51221276E-07  2.30539883E-05 -5.72620350E-04 -6.36895056E-03 -8.80200410E-04
 -7.65165258E-04 -1.20208845E-02 -5.60610256E-04 -7.91743735E-04 -3.38759951E-05
  2.09528037E-03  9.12903268E-03  2.44649820E-02  6.76253493E-04 -1.04441310E-04
  6.82398071E-05 -6.89405238E-04  4.79081916E-06 -9.52139413E-03 -4.91976346E-04
 -7.87828783E-04 -4.96695599E-05 -1.71649911E-06 -4.46597342E-05  2.23253232E-04
  1.24353560E-01  4.25608448E-06  4.12286866E-05 -5.48102841E-04  1.67343468E-01
  3.23229099E-05  5.38970986E-05  1.50829677E-04  9.55114744E-06  1.00313263E-02
 -2.30675533E-04  2.39771039E-04  1.07544001E-05  1.65731062E-02  1.81007581E-04
  3.18551476E-04  8.18243957E-05 -2.85157983E-03  4.42946479E-05 -5.49397963E-03
  4.34046732E-04  2.99766442E-06  2.45285490E-08 -2.78634205E-03  1.43915639E-04
 -2.73596554E-04  9.49989896E-04  3.86329556E-04 -1.36607114E-04 -1.73284324E-04
 -5.91064363E-05  5.40811989E-06  8.04020529E-05 -8.23300354E-05  8.05320005E-04
  3.07179557E-03 -4.11916055E-04  2.34574777E-04 -9.72017106E-04 -2.99666722E-04
 -2.46757272E-04  7.63640813E-07 -2.86501780E-06 -9.22698843E-05  4.61867643E-06
  8.79539655E-02  4.00102741E-05 -1.42630473E-04  9.50093379E-06  1.27646689E-01
 -8.40692088E-03 -1.44477960E-02 -6.66631968E-02  4.31202184E-03  4.34367685E-04
  4.50070456E-02 -1.03529836E-01  6.85802151E-03  6.65257489E-04  2.79528012E-02
 -5.32937149E-02 -7.28926203E-03 -1.30463818E-03 -3.48673764E-03  3.01549456E-05
  1.14544718E-05  8.82780205E-03 -6.36520146E-04 -1.22316209E-02 -1.30647554E-02
 -2.05541407E-02 -3.83733584E-03  7.54681791E-04 -5.44101691E-04 -1.67436729E-02
 -2.70046787E-02 -3.18995409E-02 -2.96803562E-03 -1.28225597E-03 -5.11816285E-05
 -1.13481986E-02 -1.10826815E-02 -1.81010180E-02 -4.06812763E-03  6.35095978E-04
  5.53370409E-04 -5.03798481E-02 -7.62529522E-02  3.24115004E-02  1.86373600E-03
 -3.86392813E-04  2.10168557E-01  5.01546716E-02  2.82025605E-03 -5.19983601E-04
  1.15056870E-01  3.72679006E-03  5.51468958E-03 -6.55435148E-03  2.75438974E-03
  5.81583546E-04 -1.25825072E-02 -1.11659476E-02  3.60830944E-03  7.51185533E-04
 -1.23806370E-01  3.48937196E-02  1.55386299E-02  3.03310714E-03 -3.47023325E-03
  7.52253960E-05  1.87161655E-05  5.21244455E-03 -5.40582079E-05 -4.12148417E-03
 -2.05471977E-03  9.80851637E-03 -2.94301678E-04  2.21314014E-04  5.19293153E-04
 -5.62723764E-03  4.02794648E-03  2.22422499E-02 -1.41125683E-03  2.04498939E-04
  7.35561236E-05 -3.75959534E-03 -2.71651579E-03  7.99573194E-03 -9.71829145E-05
  2.06950424E-04 -4.85455835E-04 -2.47485920E-02 -3.45638773E-02  2.93286428E-02
 -3.88022674E-04  8.24868408E-05  8.44618449E-02  3.40304704E-02 -5.06429084E-04
  1.63160292E-04  3.81850806E-02  9.86841493E-02 -1.33787843E-03 -2.30531632E-03
 -6.15878476E-03 -9.53604474E-03 -1.37973487E-05  6.34446432E-03 -9.20581578E-03
 -1.44282038E-02 -2.31738667E-05  2.92533429E-02 -1.22566799E-02 -1.54652861E-02
  1.82985624E-04 -5.56427701E-04  1.14569715E-05  1.58994017E-04 -5.59302387E-04
 -2.17348286E-04 -5.55113291E-03 -1.25268866E-02 -1.53082865E-03 -6.34466902E-04
  1.51288860E-04 -9.12526334E-04  7.82067541E-03  1.32056371E-02 -1.08197241E-02
  7.13408090E-04  7.65794742E-04  3.80444582E-05 -4.60547963E-03 -1.07893305E-02
 -2.60448412E-03 -5.34403134E-04 -9.05563332E-05  8.81554274E-04 -7.08627125E-04
 -1.33912440E-03 -1.22515126E-03 -1.79166692E-02 -1.57323884E-05  5.30928381E-03
  9.10524760E-05 -2.62734278E-02 -3.48099449E-05  5.36556084E-04 -1.19817923E-02
  3.40042820E-02 -1.11254461E-04 -1.84079775E-04 -3.71409664E-04  3.53273220E-05
 -7.54174775E-03  4.57398939E-04 -5.56946440E-04  4.78795090E-05 -8.87626194E-03
  2.10653692E-03 -6.33740871E-04  1.56295854E-04 -2.09154271E-02 -2.47049762E-04
 -6.07021420E-03 -1.29426186E-03 -1.26965176E-04  1.31270625E-05  8.98593038E-03
  1.52909191E-02  7.61577843E-03  3.68402377E-04 -5.17395071E-04  5.86178367E-05
  5.84662027E-04  8.23550418E-04  3.00179044E-04  1.99024583E-05  1.98983324E-05
 -2.71994859E-04 -9.74350465E-03 -1.70923745E-02 -9.05553360E-03 -4.05176501E-04
  4.99828308E-04  2.02792943E-04 -5.28821931E-05 -8.63918087E-05  1.34570611E-04
  1.22152751E-05  7.72875868E-02  3.15893496E-04  3.08270297E-04  1.57522589E-05
  1.11518389E-01 -1.94167967E-04 -6.04279169E-04 -3.33608794E-05  1.00924211E-01
  6.55844618E-04  9.31125240E-04 -1.48044965E-04  2.35573975E-04  5.61103203E-05
 -2.23715580E-03  1.76882926E-04  3.08069789E-04  7.87824421E-05  3.30837633E-03
 -2.14639442E-03  2.80207805E-06  2.98520329E-06  1.81028959E-04 -7.39787864E-07
  1.52330059E-06 -2.90843263E-04  4.26900520E-05 -3.32983394E-04 -6.37071996E-04
 -3.18618181E-04  3.21122758E-05  7.10734937E-05 -1.18908333E-04 -6.91648650E-04
 -1.31093194E-03 -8.75866086E-04  7.60059066E-05 -1.71478695E-04 -9.70198401E-06
 -2.64100356E-04 -5.24639012E-04 -2.37426553E-04  2.03047803E-05  5.33302416E-05
  1.22437572E-04  1.72046492E-03  3.99026844E-03  1.78546229E-03 -2.65940360E-04
  4.17766963E-05 -1.51235973E-02  2.59380894E-03 -3.54527768E-04  6.20020727E-05
 -4.38952553E-03 -2.91136333E-03  2.74298109E-04  6.95826061E-05  8.10789976E-04
 -7.41402845E-06 -8.36749055E-06 -3.42285654E-05  2.36885180E-06  6.66668182E-03
  2.10610635E-05 -4.95130796E-05  1.40970237E-07  9.43544642E-03 -1.69451066E-04
 -4.05713642E-06  8.36485802E-05  7.50361819E-03  1.27507483E-04  9.17414093E-04
  7.48812508E-04  6.82684784E-05 -4.21363742E-06 -5.01011227E-03 -7.23508091E-03
 -4.53352418E-03  1.95192793E-04  3.72154934E-04 -9.22723525E-05 -3.55411828E-04
 -4.57297789E-04 -2.43168293E-04  3.11990224E-06 -3.87046355E-05  3.89770379E-04
  5.40755983E-03  7.84770136E-03  4.83043029E-03 -2.11696714E-04 -3.32845651E-04
 -1.85429490E-04 -1.84673355E-05 -2.47584824E-05  9.50007384E-06  5.17525139E-06
 -6.06882535E-03  5.04307020E-05  5.77929682E-06  5.31450185E-06 -8.50268618E-03
  1.37532734E-04  5.75175116E-05 -4.40381838E-05 -8.82959617E-03 -1.19316895E-07
  1.26100060E-03  4.94794772E-07  5.14384492E-07  3.27175769E-07  1.05405250E-05
 -2.71992703E-04  9.21410719E-07 -4.08304686E-06 -2.98236691E-05 -1.58750118E-04
 -4.43053120E-08  4.53503746E-05  1.43601268E-03 -6.88930268E-03 -9.80458083E-06
 -1.73826398E-04  1.41480902E-04 -2.54715230E-06  2.16683925E-05 -7.72173393E-05
 -2.25137403E-03 -5.98431721E-03  4.48829927E-04  6.66314874E-05 -1.19698718E-04
  3.73218016E-05  4.12533637E-04  7.90609029E-04 -5.18796761E-05  1.92779972E-05
  1.90481535E-05  3.39622199E-05  1.84826475E-03  5.19903470E-03 -3.99493487E-04
 -6.42124385E-05 -1.07724564E-04  6.09349890E-07  6.56957751E-07  2.90824286E-06
  6.39385677E-05  1.96336973E-04  3.20059864E-07  4.51690451E-06  5.96966095E-05
  3.64011099E-04 -1.16884080E-05 -3.75858071E-05 -6.99862581E-04  1.52523790E-03
  8.14424994E-07  3.88240027E-04  6.55339537E-03 -6.58925710E-03 -9.83950604E-03
 -1.36869391E-02  3.58360500E-04 -1.19187718E-04  2.49014316E-02 -2.02863222E-02
  6.03448260E-04 -1.49420152E-04  5.62491082E-02 -2.68071547E-02 -5.54211729E-03
 -1.18462498E-03  4.48041975E-04 -2.61183579E-05 -1.00297731E-05 -2.64363690E-05
 -5.44484078E-05  6.43243012E-04 -7.97232444E-04 -7.02473125E-03 -9.69629228E-04
 -6.17916155E-05 -9.74754404E-05 -1.58250336E-04 -5.15364613E-03 -1.37666203E-02
 -3.07788558E-04 -7.95108992E-05 -2.77212681E-05  6.56191741E-04 -2.45839354E-04
 -6.19307688E-03 -1.06682885E-03 -5.74312117E-05  6.50639145E-05  1.15297004E-03
  2.84277709E-03  8.29267130E-03 -1.52789624E-03 -4.25116158E-05 -1.06245777E-02
  1.52158090E-02 -2.12232627E-03 -6.91652837E-05  5.05001624E-03 -2.20596113E-02
  5.41094362E-03  2.51764742E-04  1.43860519E-03  1.05241103E-06  1.12259142E-06
  1.03107050E-02  4.76214898E-04  7.53650930E-04  1.40008545E-03  6.28258400E-03
  1.33641572E-05 -2.23420365E-03  2.11376232E-03  8.55018550E-03  1.82659425E-05
 -3.35092486E-03  2.47827624E-03  6.81478606E-03  1.23846534E-04  4.68500421E-04
 -2.15899289E-06 -9.67765435E-05  2.26007643E-04  7.26618251E-04  2.78287003E-03
  1.84596847E-03  4.67710889E-03 -2.63600541E-04  2.73625655E-04  2.32913559E-04
 -4.79134197E-03 -3.57341312E-03 -6.20458128E-03  7.46595787E-04 -9.07042805E-05
 -3.23680719E-05  2.25651012E-03  1.38339712E-03  3.81545737E-03 -1.78204979E-04
  3.02972362E-04 -1.93477664E-04 -1.45817190E-04 -3.27999706E-04 -1.23777194E-03
 -1.12580720E-02  3.53388800E-06  1.26733066E-03 -1.96629465E-03 -1.53724496E-02
  5.96075895E-06 -1.88220188E-03  2.12433000E-03  1.05156816E-02 -2.98040255E-05
 -1.07769548E-04  1.36587559E-07  8.24315135E-07 -2.59264379E-04  7.63786313E-03
 -1.19687679E-03 -1.84700566E-03 -3.74712749E-03  1.60122783E-03 -4.19013711E-05
  5.28364012E-03 -4.73107724E-03  1.87304784E-03 -7.00157426E-05  4.81264912E-03
 -6.60431984E-04  1.05829910E-03 -3.45984229E-04  1.85742704E-04 -1.46050701E-05
 -2.66036267E-05 -1.82374727E-04  2.53166392E-04  4.58375956E-04  4.06651578E-04
 -2.91602923E-03 -1.62741137E-04  5.20955634E-05 -1.03712636E-04 -1.40781594E-03
 -3.09782712E-03 -2.57184303E-03  2.60266835E-05 -3.52891196E-04 -3.82649532E-05
  3.43986244E-04  3.73609607E-04 -2.51078502E-03 -2.02060378E-04  5.61833299E-05
  1.00998556E-04  3.20344503E-03  4.63831238E-03  5.60574411E-03 -1.06319801E-02
 -2.21266818E-05 -8.15133269E-03  8.19029935E-03 -1.42871058E-02 -3.32433062E-05
  1.00812291E-02  3.15298204E-03  1.24055948E-03  8.17551209E-05  2.48684080E-03
  5.97995517E-06 -2.09041518E-05  5.45506266E-03  4.79730954E-03  6.38937928E-01
 -1.90623124E-03 -2.98036856E-03 -5.98443331E-03  2.57867631E-03 -7.13433052E-05
  8.72392198E-03 -8.20945467E-03  3.24142713E-03 -1.15866257E-04  5.38636779E-03
 -3.86416159E-04  2.43623980E-03 -6.05097988E-04  2.34198915E-04 -2.40148263E-05
 -4.57273102E-05 -1.32783232E-05  2.48065764E-04  6.90263943E-04  1.15262826E-03
 -4.68739363E-03 -3.97770779E-04  4.25012997E-06 -6.28030247E-05 -2.30267592E-03
 -4.45584037E-03 -4.14462435E-03  5.42610345E-05 -4.19073746E-04 -4.18112941E-05
  4.84612407E-04  1.13598991E-03 -3.98899831E-03 -4.57248399E-04  1.84623324E-05
  4.67599407E-05  5.02900135E-03  7.13454061E-03  9.11551858E-03 -1.70931413E-02
 -3.63610444E-05 -1.25955330E-02  1.28046207E-02 -2.19885717E-02 -5.00687299E-05
  1.46786324E-02  7.23197522E-03 -1.97624170E-03  1.32305871E-04  3.80078565E-03
  1.27316279E-05 -3.12273230E-05  8.10824300E-03  7.17934608E-03  5.67773880E-01
  5.21182098E-01  8.43938253E-03  1.35248714E-02  2.35097255E-02 -4.73962101E-03
  3.55356034E-04 -3.70338908E-02  3.42358894E-02 -8.15339592E-03  4.17149966E-04
 -1.41472952E-01  6.48955943E-02  2.35095769E-02  3.31432501E-03 -2.93134546E-03
  6.38717330E-05  1.78838703E-04  1.15487992E-03 -3.49227932E-03 -4.71612528E-03
 -1.09991257E-02  1.38409773E-02  3.63351419E-04 -2.74153202E-04 -1.16859335E-04
  9.67626724E-03  3.95484441E-02  4.05365009E-02  1.91425976E-03  1.84734795E-03
  1.97035830E-04 -3.85580698E-03 -9.79093433E-03  1.20302176E-02  8.26892708E-04
 -5.31201058E-04  5.58808577E-05 -9.54282609E-03 -1.49223292E-02  3.17634987E-03
  3.52421715E-02  1.86115496E-04  4.16346683E-02 -4.84557613E-03  4.55649718E-02
  2.99346272E-04 -1.39099669E-04  8.33118367E-02  1.69578161E-02 -5.94608354E-04
 -3.01550773E-03  1.04503715E-05  5.09152551E-05 -2.50137354E-02  1.76196850E-02
  3.31994819E-03  5.24338094E-03  1.67421997E-01 -1.97371685E-03 -3.01925327E-03
 -9.42931386E-03 -1.81700943E-04  9.85414085E-05  6.05058176E-03 -1.04225002E-02
 -2.03658261E-03  9.21762108E-05  3.04373004E-02 -2.93173995E-02 -3.69633271E-03
  1.33225273E-03  2.43738231E-05  3.69471195E-05  1.15759662E-05 -4.31103093E-04
  3.24178039E-03 -3.64483380E-04 -9.76808333E-03  1.21296987E-02 -5.67977861E-04
  8.35126418E-04 -6.23320162E-04 -1.41737573E-03  9.72150481E-04 -1.22561568E-02
  1.23696287E-04  1.59530115E-04 -5.87406354E-05 -2.63073643E-04 -9.68245011E-03
  8.79550152E-03 -3.83500512E-04  6.67492698E-04  6.86745811E-04  2.39100257E-02
  3.76826824E-02  3.78206534E-02 -6.67012525E-02 -1.49186388E-04 -1.10829665E-01
  5.48914034E-02 -9.22810094E-02 -2.28701749E-04 -4.71077556E-02 -1.44975268E-03
  3.99041398E-02 -3.74662801E-04  2.91826573E-03 -2.60236502E-06 -6.67783921E-05
  2.88230297E-03  1.78400972E-02 -9.07837785E-03 -1.42111091E-02  1.40876875E-02
  1.36196633E-01 -3.71345824E-05 -5.81395106E-05 -8.35694901E-05  3.59213273E-04
 -9.24687381E-03  1.09842417E-04 -1.31896336E-04  3.44734591E-04 -1.11206645E-02
  9.89681848E-04 -4.41929779E-05  5.61204517E-03 -4.23400017E-02 -2.35097691E-04
 -4.96238872E-03 -6.98688218E-04 -1.15161276E-04  1.37620404E-04  8.18880092E-03
  5.46563198E-03 -1.44485942E-02  1.77796541E-03 -2.68753815E-04 -3.33089288E-04
  4.39784697E-04  1.94392847E-03  3.09615858E-03 -1.70312417E-04  8.92904526E-05
 -3.07688735E-04 -8.73531273E-03 -7.98537493E-03  1.09439542E-02 -1.59962570E-03
  2.69476976E-04 -1.85533771E-04  5.43090358E-05  8.48913877E-05  1.33968333E-04
 -1.60259553E-04  5.28890687E-02 -2.12894823E-04  2.39849943E-04 -3.02898109E-04
  7.64765497E-02 -4.64743343E-04 -3.52364083E-04 -2.59513528E-03  7.41702234E-02
  4.96165883E-05 -4.83658983E-03  2.47216116E-02  8.17997232E-05  5.29422147E-05
 -1.35604919E-05 -1.64119291E-05 -1.65212722E-04 -4.26296470E-05  1.39927303E-01
  5.52693964E-03  8.76424246E-03  1.71302519E-02 -8.32544483E-03  2.55660147E-04
 -2.63008280E-02  2.57308208E-02 -1.13746724E-02  3.99004019E-04 -5.09961047E-03
 -2.17875180E-03 -1.08707760E-02  1.92846625E-03 -4.49859701E-04  7.45917623E-05
  1.58759697E-04 -1.02646150E-03 -1.68915413E-04 -2.30101119E-03 -5.74878092E-03
  1.32327168E-02  1.62433236E-03  2.59334626E-04 -2.41541789E-04  7.36889080E-03
  1.17025514E-02  1.15430645E-02 -1.81728361E-04  7.35770609E-04  5.92970404E-05
 -1.50419361E-03 -5.63273079E-03  1.11129486E-02  1.77749276E-03  1.73972523E-04
  3.23052109E-04 -1.29473782E-02 -1.81613118E-02 -2.71999952E-02  4.77304863E-02
  1.03205175E-04  3.22635673E-02 -3.63759069E-02  5.80161419E-02  1.27663023E-04
 -3.85422251E-02 -3.02177648E-02  1.99303330E-02 -3.89562034E-04 -1.02392090E-02
 -4.57451429E-05  5.47042582E-05 -2.07260826E-02 -1.87839236E-02 -1.28690840E-01
 -2.17368861E-01 -1.67970842E-02  4.18068274E-02 -7.48684730E-05  6.63486290E-01
  1.11093438E-02  1.79982412E-02  3.09847222E-02 -6.64399763E-03  4.91535962E-04
 -4.98600491E-02  4.50777467E-02 -1.14494096E-02  5.76543366E-04 -1.94140478E-01
  8.79378246E-02  3.24750852E-02  4.57632389E-03 -4.15150906E-03  8.76653376E-05
  2.51839279E-04  1.73885890E-03 -4.88330771E-03 -6.83851049E-03 -1.60202286E-02
  1.89469143E-02  3.82692814E-04 -3.59796316E-04 -1.99867330E-04  1.33499473E-02
  5.49596526E-02  5.54708774E-02  2.62788542E-03  2.57590128E-03  2.72981044E-04
 -5.61978649E-03 -1.42612615E-02  1.64248702E-02  1.02829657E-03 -7.26939739E-04
  1.13682861E-04 -1.47932154E-02 -2.21251598E-02  6.26673816E-03  4.89133286E-02
  2.65307782E-04  5.85153339E-02 -3.92660217E-03  6.31045723E-02  4.25531244E-04
  6.08274946E-04  1.16038623E-01  2.51289214E-02 -8.09068419E-04 -4.18866081E-03
  1.47951065E-05  8.18531881E-05 -3.44477347E-02  2.48960342E-02  3.77271100E-03
  6.05744702E-03  2.34056620E-01  2.21900843E-02 -1.80057239E-04 -2.01694414E-02
  3.27339422E-01 -1.97517604E-03 -3.22766733E-03 -1.25062686E-02 -5.46996475E-04
  1.38885757E-04  6.62058704E-03 -1.36397227E-02 -3.22426162E-03  1.26623367E-04
  3.52575271E-02 -3.78556074E-02 -4.60821233E-03  1.95196771E-03 -1.01103150E-04
  5.34471696E-05  2.03149875E-05 -4.91659507E-04  4.41560066E-03 -8.34026030E-04
 -1.35428515E-02  1.69221448E-02 -7.21514748E-04  1.13989783E-03 -8.62764329E-04
 -1.85680358E-03  1.86505450E-03 -1.50184573E-02  1.10620164E-04  2.14724411E-04
 -7.73488349E-05 -6.80146505E-04 -1.34799532E-02  1.22915652E-02 -4.62125036E-04
  9.07726248E-04  9.50399551E-04  3.48273989E-02  5.33410850E-02  5.29517659E-02
 -9.16462939E-02 -2.13178803E-04 -1.51718085E-01  7.63576290E-02 -1.26685877E-01
 -3.24966925E-04 -6.40309852E-02  2.20319634E-03  5.32006594E-02 -5.53253465E-04
  4.06771102E-03 -2.21144572E-06 -9.97734438E-05  3.08862653E-03  2.43688265E-02
 -1.01026272E-02 -1.61145170E-02  2.21763463E-02  1.85716881E-01 -1.04381175E-04
  4.87943995E-02  3.43182118E-02  2.53550667E-01 -4.78334419E-05 -7.90420737E-05
 -1.42343490E-04  5.13082080E-04 -1.30249686E-02  1.58380639E-04 -2.22132672E-04
  5.00847689E-04 -1.56282372E-02  1.44078226E-03 -9.54512560E-05  7.77479631E-03
 -5.93700148E-02 -3.34376601E-04 -7.14243007E-03 -1.01686375E-03 -1.62021976E-04
  1.91266757E-04  1.16706556E-02  8.19726938E-03 -1.96365951E-02  2.47633634E-03
 -3.89822748E-04 -4.58137167E-04  6.11498587E-04  2.69043802E-03  4.28228321E-03
 -2.34500252E-04  1.21680408E-04 -4.31505070E-04 -1.24541994E-02 -1.17453734E-02
  1.47341435E-02 -2.23272031E-03  3.92151093E-04 -2.49363559E-04  7.47588614E-05
  1.12511117E-04  2.00936926E-04 -2.08770758E-04  7.68352946E-02 -2.64202293E-04
  3.58325495E-04 -3.99841115E-04  1.11095225E-01 -6.37718609E-04 -4.99943646E-04
 -3.60711669E-03  1.07364903E-01  7.17167071E-05 -7.10328289E-03  3.42080740E-02
  1.21891456E-04  6.58961888E-05 -1.14009499E-05 -1.00054379E-05 -2.64258336E-04
 -1.03363740E-04  1.96837112E-01 -1.43975498E-04 -2.98799526E-04 -2.05858799E-04
  2.77041785E-01  8.27899508E-03  1.33673280E-02  3.60111744E-02 -5.19038557E-03
  2.04873167E-04 -3.99855257E-02  5.62480147E-02 -7.33609039E-03  2.71479820E-04
 -4.86627150E-02  2.15867485E-02 -8.90673025E-04  3.08318436E-03  2.09067228E-04
  7.98833203E-05  7.29156723E-05 -2.55897974E-03  1.93990986E-03  4.02546754E-03
  3.94510388E-03  2.53661252E-02  3.06931361E-03  1.35654861E-04  4.40503610E-04
  7.43156279E-03  1.25529949E-02  2.85910287E-02 -3.58095776E-04  7.71364625E-04
  4.64630846E-05  4.07062661E-03  2.11343021E-03  2.18409628E-02  3.27505444E-03
  2.00292621E-04 -3.35077618E-04  5.41329202E-03  1.42136555E-02 -1.22075952E-02
  1.44040510E-02  1.13026093E-04 -7.13505743E-02 -1.93616665E-02  1.48349915E-02
  1.43597650E-04 -7.98359730E-02 -8.15363030E-03  3.11698684E-03 -6.03438952E-04
 -6.57101359E-03 -4.05534541E-05  4.34435516E-04 -2.62294642E-02 -1.68923995E-02
 -1.30493465E-01 -2.01448776E-01 -1.65277333E-02  7.64982436E-02  1.53343633E-03
  5.55443356E-01 -2.08626485E-02  9.93630260E-02  2.07489288E-03  5.15961254E-01
  1.46245463E-02  2.33934760E-02  4.80079707E-02 -1.07254078E-02  4.92086829E-04
 -6.44037664E-02  7.10342525E-02 -1.76072776E-02  5.64333878E-04 -2.15267893E-01
  1.07682051E-01  3.24663811E-02  5.11356827E-03 -3.85142845E-03  9.64719358E-05
  3.15386694E-04 -1.31634367E-04 -5.02277899E-03 -6.08208419E-03 -1.58698567E-02
  2.36571053E-02  1.35343141E-03 -5.73663516E-04 -2.45161531E-04  1.97815955E-02
  6.69341647E-02  6.62414700E-02  3.44102538E-03  3.14219344E-03  3.20436312E-04
 -4.64509751E-03 -1.39160944E-02  2.08039765E-02  2.06283234E-03 -9.83887160E-04
  1.34373552E-04 -6.45088161E-03 -9.71048768E-03 -3.81670014E-03  4.46715699E-02
  2.85670706E-04  2.53742591E-02 -2.00976468E-02  5.73518490E-02  4.53659360E-04
 -2.06928368E-02  1.15929407E-01  2.76108334E-02 -9.16266457E-04 -3.56163708E-03
  3.47065441E-06  1.04087428E-04 -3.75543905E-02  2.82401785E-02  6.13537787E-03
  1.07502503E-02  2.48750000E-01  3.22249083E-02 -1.05514945E-04 -3.65146733E-02
  3.47539038E-01  4.84438798E-02 -2.05361606E-04 -2.58423035E-02  3.74515088E-01
 -2.78256078E-03 -4.38904585E-03 -1.73457902E-02 -2.25601924E-03  1.84419535E-04
  9.38973064E-03 -2.15484855E-02 -5.60352433E-03  2.16585281E-04  5.33575319E-02
 -4.65037720E-02 -8.12396766E-03  1.50906213E-03 -2.32569768E-04  5.21427832E-05
  6.98290845E-05 -3.14270815E-04  3.53061821E-03 -3.25098212E-03 -1.81533188E-02
  1.30153274E-02 -1.17635745E-03  1.19460970E-03 -1.19882191E-03 -9.32117674E-04
  3.67671741E-03 -2.06973373E-02  4.20631971E-04  2.94798802E-04 -6.50954520E-05
 -2.71783343E-03 -1.70994248E-02  9.02188389E-03 -9.30322444E-04  8.78711732E-04
  1.27138344E-03  2.88901911E-02  4.31951618E-02  4.55033377E-02 -7.85188924E-02
 -1.98480931E-04 -1.20595354E-01  6.75028956E-02 -1.09886732E-01 -3.03889652E-04
 -5.44366299E-02 -9.89041876E-03  6.27152050E-02 -4.50142179E-04  2.59778486E-03
 -7.50933974E-07 -1.34815303E-04  4.97645718E-03  2.48889203E-02 -1.88977696E-02
 -3.25423296E-02  2.55681189E-02  1.78859363E-01 -2.99304004E-04  1.03973361E-01
  3.96147018E-02  2.42651260E-01 -4.75915080E-04  1.26844912E-01  5.05721809E-02
  2.44004225E-01 -4.16314034E-05 -6.05549490E-05 -3.27429032E-05  5.74923152E-04
 -1.52261631E-02  9.00055209E-05 -6.47895741E-05  5.45689351E-04 -1.88535802E-02
  1.14017261E-03  9.81333157E-05  9.14515665E-03 -6.59715082E-02 -3.56390670E-04
 -6.65397687E-03 -1.01559758E-03 -1.73706307E-04  2.21715357E-04  1.24831217E-02
  6.85166286E-03 -2.45517432E-02  2.74725404E-03 -4.13961583E-04 -5.34615047E-04
  6.79063530E-04  3.12305855E-03  5.05600375E-03 -2.86037844E-04  1.56050989E-04
 -5.57496105E-04 -1.32901184E-02 -1.06762344E-02  1.90902825E-02 -2.44209408E-03
  4.05976228E-04 -3.03527479E-04  8.35189313E-05  1.28098527E-04  1.51104216E-04
 -2.46870140E-04  6.58570037E-02 -3.21844384E-04  2.69827742E-04 -4.78332534E-04
  9.52066188E-02 -6.94237573E-04 -4.49924579E-04 -4.19754097E-03  9.47145367E-02
  5.76412995E-05 -5.73226676E-03  4.01121268E-02  7.29939360E-05  1.06306129E-04
 -5.43731178E-05 -8.42067750E-05 -7.37033039E-05  2.08647490E-05  2.09685129E-01
  6.23440886E-05 -2.39458203E-05 -3.94986489E-05  2.94155380E-01  2.68439156E-03
  1.25691096E-04 -3.55621441E-04  3.18654956E-01  1.12773500E-05  7.59162950E-07
 -2.79046812E-04 -2.02492162E-04  1.23305660E-05 -2.60367023E-05 -2.08593503E-04
 -3.41455031E-04  1.55561710E-05  1.86660951E-03 -1.46607052E-03 -7.06113704E-04
  5.57484795E-05  3.39440924E-05  3.29924777E-06  2.31115278E-06 -7.67219334E-05
  2.23210338E-04 -4.92343035E-05 -2.47310527E-04  4.17327070E-04  2.80773931E-05
  3.63793417E-05 -3.37679990E-05 -4.20036041E-05 -3.87601444E-04 -5.27252646E-04
 -4.61708517E-05 -2.54130493E-05 -3.90790590E-06 -2.52723326E-05 -2.52878205E-04
  3.08010979E-04  2.69477456E-05  3.11843076E-05  3.71141140E-05  2.19537163E-03
  2.94101887E-03  1.54715203E-03 -4.16640546E-03 -2.37196244E-05 -6.85718188E-03
  2.26568771E-03 -5.63141580E-03 -3.47149693E-05 -2.61023746E-03 -7.72351156E-04
  7.61027735E-04 -3.49220466E-05  2.32634591E-04  2.09452391E-06 -6.30997160E-06
  3.18236865E-04  3.48819742E-04  7.61420699E-05  1.91156352E-04 -2.47973014E-03
  5.56063454E-03 -2.18661884E-05 -6.68974876E-04 -3.40922175E-03  7.62423316E-03
 -3.25161614E-05  2.29783966E-03 -3.01610848E-03  6.59975852E-03 -2.97085382E-05
  3.26727450E-04  2.13540768E-06  3.27191771E-06  1.08888099E-06 -4.94303430E-06
  2.56421475E-04 -1.06020904E-05  2.18821880E-06 -1.10678752E-05  4.44665708E-04
  1.33296315E-05  4.21086971E-06  1.15242800E-04 -6.45371592E-04  3.61063551E-07
 -1.56984189E-04  2.53861074E-05 -3.22989244E-07  2.40673819E-06 -9.59364133E-05
 -2.11406500E-04 -5.30982610E-04  6.40386799E-05  1.68834935E-05 -1.46182734E-05
  3.23482526E-07  3.37180472E-05  6.59295267E-05 -2.71956792E-06 -7.21192030E-07
  2.37260690E-05  9.31184243E-05  1.61114271E-04  4.60378763E-04 -5.99661443E-05
 -1.41173559E-05 -1.55511221E-05  4.09934777E-06  5.36406849E-06 -8.65300817E-07
 -1.18310208E-05  2.31310979E-03 -1.15822775E-05 -8.16793119E-07 -1.81670533E-05
  3.36447866E-03 -1.96961538E-05 -5.92484525E-06 -5.82866261E-05  3.03914495E-03
  2.04920471E-06 -1.87206098E-04  5.70274285E-04 -2.18584044E-07  1.30228388E-07
 -4.44154814E-06 -6.58836539E-06 -5.47824272E-06  3.40188604E-06  4.10947742E-03
  1.52428312E-05 -6.40807291E-06  3.39230971E-06  5.82394812E-03  5.41958785E-05
 -3.56927704E-06 -1.11756942E-06  5.91409704E-03 -3.53547414E-07  1.36666155E-04
  1.55549393E-06  2.10141101E-06  1.82219615E-06 -1.98578045E-05  3.01067655E-04
  6.88532250E-07  1.71004973E-06 -2.01562386E-05  2.50462367E-04 -6.28224583E-05
 -1.77891965E-06 -2.65590074E-04  2.33673077E-03  1.35418169E-05  4.55511040E-04
  4.20775150E-05  7.20076274E-06 -7.87458342E-06 -4.51839971E-04 -4.97813810E-04
  5.39909536E-04 -1.10447488E-04  1.09797870E-05  1.74124991E-05 -2.27260785E-05
 -9.87154054E-05 -1.49745794E-04  5.60002025E-06 -2.32041956E-06 -9.77856358E-07
  4.78640385E-04  6.44999156E-04 -3.68930207E-04  1.02576790E-04 -1.32844497E-05
  1.13674926E-05 -1.20344466E-05 -1.63866202E-05 -1.51689203E-05  2.82077188E-05
 -5.76225844E-03  3.67813475E-05 -2.37446919E-05  4.18259970E-05 -8.33958699E-03
  5.19521272E-05  8.90102214E-06  1.19429918E-04 -7.67774093E-03 -5.65512116E-06
  5.65918742E-04 -1.16428297E-03 -2.42490061E-06 -5.49488199E-06 -2.06499319E-06
 -4.14020507E-06  2.90524978E-06 -1.67277745E-05 -9.41984463E-03  1.95196303E-05
  1.17632858E-06 -2.07661250E-05 -1.33835811E-02 -7.43625831E-05 -5.48239969E-06
 -5.48108351E-06 -1.33886925E-02  7.91529064E-07 -3.17214290E-04  7.53504535E-04
 -3.03124473E-04 -5.18105403E-04 -2.00151100E-03  8.16993935E-05 -1.05211430E-05
  1.43203329E-03 -2.66459611E-03 -1.61039389E-05 -2.22822756E-05  1.46488705E-03
 -3.11180093E-03  4.64202463E-04  1.12549745E-04 -1.02685550E-04  1.60244057E-06
 -6.79350135E-07  1.23729140E-04  1.39894943E-04 -2.41465492E-04 -1.03102997E-03
  5.12114577E-04 -1.26728096E-04  5.55641253E-05 -5.89125677E-05 -3.05660721E-04
 -3.39277516E-05 -2.99265248E-04 -7.53295357E-05 -9.40960929E-06 -5.26651931E-06
 -2.54590374E-04 -1.06231411E-03  2.61958913E-04 -1.09655995E-04  4.30503524E-05
  6.26137728E-05  2.65626776E-03  3.67494463E-03  5.42618210E-03 -3.77680093E-03
 -1.13004337E-05 -9.08160261E-03  7.71195822E-03 -5.20719673E-03 -1.75570115E-05
 -2.65279094E-03  2.11959805E-03  2.01520885E-03 -2.84332988E-05  3.40463235E-04
 -6.90057336E-07 -2.43932198E-06  1.92603489E-04  1.27032469E-03  6.28685354E-04
  1.10717481E-03  3.00346311E-03  9.71145386E-03  5.81750573E-06 -3.44645279E-03
  4.36919983E-03  1.34154361E-02  5.62297162E-06  7.81412247E-04  5.10597312E-03
  1.20862247E-02  1.45004692E-05  3.97285353E-04  6.59027271E-08 -1.95810314E-06
  8.76054671E-04  1.07691180E-04  7.68989868E-05  6.88328947E-04  2.12759844E-04
 -7.01905052E-06 -2.05361596E-05  1.21408634E-03  2.96927373E-04 -6.89374711E-06
  5.49968481E-03 -1.50928320E-03 -1.51625660E-03 -8.27311877E-05  2.57992175E-04
 -7.29959410E-07 -1.08907945E-05 -2.74146913E-04  4.41771318E-04  5.80085399E-04
  8.94250907E-04  4.88521253E-04  1.13778795E-04  4.01908266E-05  1.69552657E-05
 -3.46294038E-04 -1.72659738E-03 -2.06737292E-03 -5.90472093E-06 -7.48282532E-05
 -1.14285982E-05  5.22255599E-04  7.76282116E-04  4.11505277E-04  9.70661297E-05
  5.31320363E-05 -9.56917759E-06  2.65711831E-03  3.58473284E-03 -1.03326468E-03
 -6.65507896E-03 -1.96706165E-05 -8.28654547E-03 -1.17693387E-03 -8.86412047E-03
 -3.00267563E-05 -3.34716318E-03 -4.60377470E-03  2.77401578E-04 -2.27610481E-07
  3.37210978E-04 -3.37783631E-07 -8.30778792E-06  1.12026564E-03 -1.76599817E-05
  5.93184504E-04  1.04938110E-03 -8.99660772E-03  4.28492191E-03 -3.66039710E-06
 -3.13959895E-03 -1.25890353E-02  5.77758515E-03 -5.73270666E-06  1.68089531E-04
 -1.23158288E-02  4.46982957E-03 -9.71016326E-06  4.10686266E-04  3.11159673E-07
 -4.26438776E-07  1.68875919E-04  8.54635621E-04 -1.18660918E-03 -1.80704399E-03
 -3.81832213E-03 -1.71318298E-03 -3.97867780E-05  5.18583775E-03 -4.93617354E-03
 -2.21782133E-03 -7.81699208E-05  4.35296708E-03 -8.08195461E-04 -5.10838715E-03
 -3.49921943E-04 -1.13770546E-04 -1.40358781E-05  2.29456225E-05 -2.87387843E-04
 -3.94861038E-04 -9.45747456E-04 -1.13772224E-03 -1.43953607E-03 -2.35779864E-04
 -4.29586008E-05 -2.20892638E-04  7.92942025E-04  1.54709854E-04 -5.10971607E-03
  2.73234757E-06 -8.77459771E-05 -1.06458793E-05 -8.14306615E-04 -8.28607159E-04
 -1.30457052E-03 -2.77603999E-04 -7.69218556E-05  1.84674448E-04  3.20368831E-03
  4.64314266E-03  6.52714826E-03  1.00916851E-02 -2.25626709E-05 -8.16079996E-03
  9.50807958E-03  1.36177331E-02 -3.18109015E-05  1.00430614E-02  2.98163809E-03
  7.19859452E-04  7.72021450E-05  2.47258790E-03  8.98291926E-06  2.05732993E-05
  4.48000507E-03 -5.75196807E-03 -2.33440143E-04 -3.25419441E-04 -4.12498569E-03
 -4.01590277E-03  1.28191282E-05  7.16783494E-04 -5.38872125E-03 -4.96364933E-03
  2.10246141E-05 -2.71383518E-03 -7.75931582E-03 -4.67732586E-03  7.50587645E-06
 -1.36696578E-04 -2.33483329E-06  1.70176066E-06  1.26825188E-04 -4.20717917E-04
  6.38956335E-01 -1.88480485E-03 -2.93241311E-03 -6.13816389E-03 -2.79958736E-03
 -6.95393342E-05  8.53360447E-03 -8.49852063E-03 -3.73383821E-03 -1.22367531E-04
  5.99941042E-03 -8.95258983E-04 -9.58170662E-03 -6.03869836E-04 -2.20863378E-04
 -2.20951338E-05  3.79867742E-05 -2.25678759E-04 -4.96479738E-04 -1.57318217E-03
 -1.61911582E-03 -2.22314358E-03 -3.51972914E-04 -2.41542426E-05 -2.45144076E-04
  1.39123600E-03  1.36511650E-04 -8.55230363E-03 -7.75033680E-05 -8.43625219E-05
 -1.56256411E-05 -1.37145572E-03 -1.12747949E-03 -1.98856815E-03 -4.29560028E-04
 -6.78010099E-05  1.98323267E-04  5.02415541E-03  7.12745620E-03  1.06108477E-02
  1.62130569E-02 -3.66986268E-05 -1.25137147E-02  1.48455326E-02  2.09284287E-02
 -4.87575092E-05  1.40406609E-02  6.97097226E-03  5.13612808E-03  1.25436092E-04
  3.79392985E-03  1.62289533E-05  3.03414903E-05  6.67833489E-03 -8.58167655E-03
 -3.22269396E-04 -5.09753987E-04 -6.47541282E-03 -6.37832549E-03  1.60383126E-05
  1.39265230E-03 -8.35710798E-03 -8.02578725E-03  2.54934993E-05 -5.49615924E-03
 -1.30217704E-02 -7.70240532E-03  7.90906565E-06 -2.38420038E-04 -2.98711989E-06
  2.92067511E-06  3.38784382E-05 -6.01066864E-04  5.67815043E-01  5.21263684E-01
  8.78079970E-03  1.40120998E-02  2.50836230E-02  6.41740483E-03  3.28915976E-04
 -3.75219992E-02  3.63184484E-02  9.59669025E-03  4.11580119E-04 -1.52238318E-01
  6.83012199E-02  8.60112126E-03  3.16493508E-03 -1.24233742E-03  5.49794043E-05
 -1.65656793E-04  2.69455991E-03  4.12042402E-03  5.86220112E-03  1.95956945E-02
  2.34309617E-02  2.62648164E-03  1.64219212E-04  1.77476850E-03 -7.88158086E-03
 -9.30884054E-03  2.54910813E-02 -1.72740248E-03 -2.49191924E-04  1.92561176E-06
  4.78954352E-03  1.53970935E-02  2.00493194E-02  2.71607107E-03  5.14032457E-04
 -1.63292343E-03 -1.17045448E-02 -1.83100609E-02 -3.94659740E-03 -4.10697509E-02
  2.01263278E-04  5.10375275E-02 -1.52781563E-02 -5.35113953E-02  3.19804803E-04
  1.09458143E-02  8.35202686E-02 -3.81005028E-02 -5.41045850E-04 -3.04231827E-03
  2.95127794E-06 -6.08187989E-05 -2.77958154E-02 -1.07144609E-02 -3.76026496E-03
 -5.87431838E-03  1.34621130E-03 -1.12276646E-02 -1.02159775E-04  1.48075173E-02
 -1.77732651E-04 -1.10197542E-02 -1.41241367E-04  6.37829619E-02 -6.93114942E-04
 -3.61616252E-02 -1.02385985E-04  1.30110446E-03  9.23551804E-06 -1.56479580E-05
 -4.34348804E-04  1.65776740E-03  4.08231229E-03  6.38708130E-03  1.65612784E-01
  1.07517954E-03  1.59091827E-03  7.24876632E-03 -2.13218066E-03 -1.08049417E-04
 -3.92201049E-03  7.71475152E-03 -4.01115060E-03 -7.12809670E-05  2.22053893E-03
  2.02260943E-02 -2.11110174E-02 -1.35024666E-03  4.52568341E-04 -3.91580434E-05
  8.01269720E-06  3.22922993E-05  2.58867740E-03  3.86342763E-04 -1.68663400E-03
  7.33891380E-03 -1.00302670E-05  5.16726985E-04  2.56024318E-05  1.77524187E-03
  5.31642318E-03 -3.11354822E-02  2.08623957E-03  9.23981527E-04  1.34374487E-06
  3.26033610E-04 -5.96213701E-04  6.51779508E-03 -1.08760773E-05  4.13337570E-04
 -1.22014683E-05 -2.29226909E-02 -3.61563050E-02 -4.35079648E-02 -5.94024669E-02
  1.34567193E-04  1.07561033E-01 -6.11476790E-02 -8.20809851E-02  2.01299581E-04
  3.33780007E-02 -8.09013310E-03  5.09388499E-02  3.46049430E-04 -2.37071188E-03
 -9.42032246E-06 -6.08942421E-05  3.20232648E-03  1.91261048E-02  4.33872043E-03
  6.88277695E-03  1.41172279E-02  2.74590147E-02  1.35200438E-05 -1.79124925E-02
  2.06670828E-02  3.59173807E-02  2.95202711E-06 -5.02405752E-02  2.33061822E-02
  4.95355319E-02  2.24139918E-05  2.21580886E-04  4.60278257E-06 -8.31673693E-06
 -7.31619949E-04  1.88040592E-03  8.71375401E-03  1.36674234E-02 -1.68719119E-02
  1.39046065E-01 -3.72271179E-05 -5.92622865E-05 -1.16163074E-04 -3.52465868E-04
 -5.12824854E-03  1.05492543E-04 -1.46337458E-04 -3.34978987E-04 -6.88826862E-03
  1.02459459E-03 -4.17425768E-04 -5.59143051E-03  1.09653114E-02 -1.82959984E-04
 -3.65062286E-03 -1.53926327E-03 -1.11787471E-04 -1.20775245E-04  7.06174228E-03
  2.00082193E-02  2.88245519E-02 -1.48555955E-03 -6.77671309E-04  4.95027172E-04
  6.23072349E-04 -4.44249538E-04 -2.32463141E-03  2.07012503E-04 -3.46567219E-05
 -3.15043194E-04 -7.76944389E-03 -2.02322701E-02 -2.69817697E-02  1.29991202E-03
  6.24470841E-04  5.97327752E-04  5.41659743E-05  8.48695849E-05  1.48181795E-04
  1.47977920E-04  5.34151458E-02 -2.22257686E-04  2.57199512E-04  2.87662183E-04
  7.67255915E-02 -3.79034861E-04 -9.03050194E-05  2.62702976E-03  6.50053025E-02
  4.34480967E-05 -7.76300399E-03 -2.41799078E-02  6.92380475E-05 -7.03136001E-05
  1.33382356E-05  1.69175836E-05 -1.11333550E-04 -1.03304505E-05 -4.31307070E-02
  6.29051506E-05 -1.82455144E-04 -1.91128296E-06 -5.63583652E-02 -1.52222020E-03
 -2.78001999E-04  2.19786711E-04 -8.79600017E-02 -8.44620335E-06 -6.81800938E-05
 -9.03006085E-04 -1.89112689E-06 -4.89745060E-06 -1.23298004E-05 -1.45951179E-05
 -1.65251791E-04  5.49506235E-05  1.38838361E-01  5.48847265E-03  8.78106003E-03
  1.83978801E-02  9.38146926E-03  2.60888887E-04 -2.60054383E-02  2.74665917E-02
  1.30087855E-02  4.03182267E-04 -1.33895834E-02  1.30205185E-03  3.36305861E-02
  1.88781945E-03  9.26305909E-04  6.43388621E-05 -1.27308811E-04 -2.10753096E-04
  9.90578413E-04  5.30014281E-03  4.83101719E-03  6.29404752E-03  9.49841785E-04
 -6.31579455E-05  3.98377889E-04 -5.26471755E-03 -1.31225278E-03  2.56258323E-02
  5.57844778E-04 -2.39661484E-05  3.56355778E-05  4.71163085E-03  3.39109993E-03
  5.63694275E-03  1.20466683E-03  3.86610992E-05 -2.96941315E-04 -1.27850170E-02
 -1.78701491E-02 -3.15741453E-02 -4.50087773E-02  1.02252818E-04  3.09570728E-02
 -4.21662365E-02 -5.47934187E-02  1.27183850E-04 -3.50789654E-02 -2.88164908E-02
 -2.90140625E-02 -3.71180202E-04 -1.02913535E-02 -4.75020291E-05 -5.12424469E-05
 -1.74161840E-02  2.22802578E-02  6.20099541E-04  1.25532343E-03  1.70565589E-02
  1.66503244E-02  6.10405973E-05 -4.48578823E-03  2.15033059E-02  2.12219380E-02
  8.16478486E-05  1.99965512E-02  3.78145773E-02  2.07495422E-02  1.41250428E-04
  7.03197674E-04  8.07758709E-06 -1.27170647E-05  3.59870356E-04  1.48164647E-03
 -1.29007275E-01 -2.17921154E-01 -1.90123524E-02 -4.08454967E-02 -8.18527069E-05
  6.66030654E-01  1.14061265E-02  1.84401897E-02  3.30780620E-02  9.04738591E-03
  4.63544215E-04 -4.99907649E-02  4.78081167E-02  1.35703237E-02  5.81268519E-04
 -2.08622000E-01  9.24234047E-02  1.19794498E-02  4.37240727E-03 -1.76881851E-03
  7.61606970E-05 -2.32175612E-04  3.89867123E-03  5.71994065E-03  8.07796156E-03
  2.73088888E-02  3.17944557E-02  3.56629064E-03  2.16925467E-04  2.47444342E-03
 -1.12686863E-02 -1.39341736E-02  3.51304665E-02 -2.55244853E-03 -3.90166433E-04
  8.30325147E-07  6.59620470E-03  2.14594090E-02  2.71681088E-02  3.68098554E-03
  7.09337359E-04 -2.27824636E-03 -1.80361783E-02 -2.70582448E-02 -3.74284986E-03
 -5.69574920E-02  2.84189271E-04  7.17174720E-02 -1.85299239E-02 -7.40735549E-02
  4.50849280E-04  1.65558185E-02  1.15818650E-01 -5.45920931E-02 -7.35667795E-04
 -4.22979447E-03  4.09902075E-06 -9.61698588E-05 -3.82462127E-02 -1.54493644E-02
 -4.89595600E-03 -7.49812057E-03 -9.80297069E-04 -1.70314803E-02 -1.74939219E-04
  1.81774295E-02 -4.25556922E-03 -1.72435384E-02 -2.39779320E-04  8.69621948E-02
 -5.51681867E-03 -5.26623723E-02 -2.03977142E-04  1.81827349E-03  1.21715266E-05
 -2.05558797E-05 -6.39992976E-04  2.37353654E-03  4.63959471E-03  7.38079578E-03
  2.30889009E-01 -2.64433591E-02 -1.78832272E-04 -2.26035607E-02  3.22068989E-01
  8.69104438E-04  1.38139191E-03  9.41498409E-03 -3.34030081E-03 -1.53151588E-04
 -3.71958203E-03  9.76991915E-03 -6.05952143E-03 -9.96749908E-05  9.75645922E-03
  2.51990362E-02 -2.99429362E-02 -1.98250180E-03  7.08367853E-04 -5.59841683E-05
  1.71506126E-05 -8.62719191E-05  3.51870847E-03  5.04290927E-04 -2.43081778E-03
  9.12604265E-03 -3.92331712E-05  6.81734565E-04  5.66260864E-06  2.86616799E-03
  7.17863160E-03 -4.36149315E-02  2.84774580E-03  1.27594938E-03  2.61232460E-06
  4.67439799E-04 -8.28185887E-04  8.16244176E-03 -5.47946194E-05  5.37408886E-04
  7.86093254E-06 -3.33172976E-02 -5.11248791E-02 -6.08990701E-02 -8.16985825E-02
  1.92839905E-04  1.47284831E-01 -8.51170902E-02 -1.12809668E-01  2.86712038E-04
  4.54719836E-02 -1.56392064E-02  6.97871214E-02  5.15923285E-04 -3.30877720E-03
 -1.51943551E-05 -9.00744336E-05  5.34494823E-03  2.60727273E-02  5.43863212E-03
  8.73128884E-03  1.48214960E-02  3.66195602E-02  1.14587025E-05 -2.28147968E-02
  2.20012798E-02  4.76137616E-02 -3.97088914E-06 -6.86595685E-02  2.53475022E-02
  6.70107804E-02  8.57470610E-06  2.98116959E-04  6.43569143E-06 -1.11588985E-05
 -1.19146513E-03  2.77153330E-03  9.74033337E-03  1.55786489E-02 -2.67304081E-02
  1.90576365E-01  1.17416818E-04 -4.80743728E-02 -4.11519731E-02  2.61528453E-01
 -4.93689136E-05 -8.27981600E-05 -1.90936356E-04 -5.04991945E-04 -7.09858335E-03
  1.57637343E-04 -2.47260149E-04 -4.89325369E-04 -9.44178187E-03  1.50437017E-03
 -6.16933066E-04 -7.74079085E-03  1.45155973E-02 -2.60867410E-04 -5.31173247E-03
 -2.15257524E-03 -1.56960535E-04 -1.67777728E-04  9.92926186E-03  2.80270530E-02
  3.99974839E-02 -2.02442382E-03 -9.42433051E-04  6.80572133E-04  8.83231086E-04
 -5.77618714E-04 -3.20782570E-03  2.87270926E-04 -4.85697471E-05 -4.27209475E-04
 -1.09523142E-02 -2.84383781E-02 -3.75158654E-02  1.76459574E-03  8.70220649E-04
  8.27774265E-04  7.37738908E-05  1.11355650E-04  2.20214985E-04  1.91512194E-04
  7.75477700E-02 -2.73883964E-04  3.82554837E-04  3.78259634E-04  1.11428284E-01
 -5.21599165E-04 -1.40806442E-04  3.65134686E-03  9.46473211E-02  6.33349952E-05
 -1.11234160E-02 -3.33435152E-02  1.07197215E-04 -9.21511641E-05  2.38396321E-05
  2.89014251E-05 -1.55134606E-04 -1.27646443E-06 -5.60836663E-02  8.19130560E-05
 -2.51852806E-04  1.31054747E-05 -7.27863257E-02 -2.12705089E-03 -3.87753856E-04
  3.29151779E-04 -1.17075140E-01 -1.26993438E-05  5.27856414E-05 -1.61522084E-03
 -1.90013435E-06 -7.43522421E-06 -1.14748217E-05 -8.92481030E-06 -2.64669086E-04
  1.22898908E-04  1.94967377E-01 -1.54430202E-04 -2.97836179E-04  2.27798924E-04
  2.73949870E-01  7.25129718E-03  1.13863118E-02  2.85697229E-02  4.77251260E-03
  1.87704904E-04 -3.30114091E-02  4.47868743E-02  5.89011140E-03  2.18090548E-04
 -3.30591194E-02  1.18821334E-02  3.84887548E-02  3.29274934E-03  6.44742074E-04
  8.04793490E-05 -4.36289529E-05 -2.09784194E-03 -7.87206608E-04  4.63683065E-03
  1.42046370E-04  1.07269309E-02  1.20768432E-03 -3.32645813E-04  9.52274207E-05
  2.63721635E-03  1.60325301E-02  4.18033447E-02  1.25644589E-03  6.13147844E-04
  8.24009951E-05  4.32866925E-03 -1.17864364E-03  8.49816740E-03  1.66548984E-03
 -3.27655636E-04 -3.08254151E-05  3.53631068E-03  1.11641606E-02 -1.19828863E-02
 -1.46466336E-02  1.08557049E-04 -6.20119297E-02 -1.72217332E-02 -1.59088718E-02
  1.26426026E-04 -7.01691147E-02 -1.52150391E-02 -2.04293540E-02 -6.09538111E-04
 -6.54545311E-03 -8.99552818E-05 -4.29659291E-04 -1.88937787E-02  2.17612682E-02
 -1.52792303E-03 -3.55899104E-03  5.93475781E-02  4.32864899E-02 -1.48421561E-03
  1.36588874E-02  8.14104251E-02  5.84825292E-02 -2.07068201E-03  4.92987440E-02
  1.03661533E-01  5.56389460E-02 -2.32286422E-03  1.06383009E-03 -2.97779733E-05
  5.65392589E-05  3.50914334E-03 -7.58435773E-04 -1.29107701E-01 -1.99159777E-01
 -3.45849563E-02 -6.69436409E-02  1.53876355E-03  5.49712566E-01 -4.56554315E-02
 -8.64646877E-02  2.08217364E-03  4.92632467E-01  1.51812532E-02  2.41052953E-02
  4.94410532E-02  1.16145229E-02  4.27063924E-04 -6.47147151E-02  7.28626247E-02
  1.72455212E-02  5.12081026E-04 -2.31135692E-01  1.11361599E-01  1.70530371E-02
  4.90677032E-03 -9.37986022E-04  7.81331285E-05 -2.92488365E-04  2.42562067E-03
  6.08215187E-03  1.20122862E-02  3.33889837E-02  3.85274572E-02  4.53813519E-03
  1.49914422E-04  2.86059806E-03 -1.11284907E-02 -1.25148649E-02  4.22423370E-02
 -1.91368619E-03 -3.70428789E-04 -6.36888091E-06  1.00531878E-02  2.65245372E-02
  3.30551226E-02  4.71645889E-03  7.28576559E-04 -2.63753844E-03 -9.12044378E-03
 -1.37349479E-02 -1.19888547E-02 -5.18546819E-02  3.12837971E-04  3.59103834E-02
 -3.22055578E-02 -6.72832617E-02  4.89031430E-04 -3.74888995E-03  1.16194116E-01
 -5.87794942E-02 -8.26130121E-04 -3.41882546E-03 -1.38032692E-05 -1.20920285E-04
 -4.16210878E-02 -1.76616291E-02 -7.29734694E-03 -1.23156625E-02  6.78360337E-04
 -1.62405329E-02 -2.66961177E-04  3.51816390E-02 -2.26674144E-03 -1.59115697E-02
 -3.70766926E-04  1.11611916E-01 -4.40941473E-04 -5.38870584E-02 -3.36310919E-04
  2.01270124E-03  1.06819386E-05 -1.81750079E-05 -7.04590734E-04  2.61442804E-03
  7.99840592E-03  1.38769398E-02  2.42069665E-01 -3.61913005E-02 -7.60429903E-05
 -4.46716972E-02  3.37223068E-01 -5.50675442E-02 -1.64325039E-04 -5.66455367E-02
  3.58934948E-01  1.18675154E-03  1.78204225E-03  1.17372193E-02 -5.69341928E-03
 -1.94229622E-04 -4.58584151E-03  1.38620412E-02 -9.71926967E-03 -1.89519606E-04
 -2.06710370E-03  3.04523470E-02 -2.80983376E-02 -1.52237042E-03  2.97976747E-04
 -5.15934099E-05  6.56922137E-05 -4.72611076E-04  2.64156118E-03 -3.76912334E-04
 -5.47978470E-03  1.06147478E-02 -1.09086703E-04  5.66244864E-04 -1.38812967E-04
  6.48840731E-03  1.58611903E-02 -3.71969823E-02  3.12565015E-03  1.65664263E-03
  3.10213087E-05 -2.37879937E-04 -3.59024370E-03  9.20011520E-03 -4.53451017E-05
  3.62000300E-04  1.24806767E-04 -2.83306593E-02 -4.24067966E-02 -5.12156666E-02
 -6.95649227E-02  1.76566760E-04  1.20186735E-01 -7.27745666E-02 -9.74114112E-02
  2.62540569E-04  3.66590090E-02 -4.43672801E-03  7.56603624E-02  4.09540657E-04
 -1.93181693E-03 -2.00162916E-05 -1.22357753E-04  4.31938221E-03  2.72166608E-02
  5.46964439E-03  9.02962419E-03  4.05302049E-02  4.78286360E-02 -1.93156288E-04
 -2.46838523E-02  5.83308165E-02  6.34920223E-02 -2.95425749E-04 -6.70015270E-02
  6.41659946E-02  8.21464029E-02 -2.91463105E-04  2.89226714E-04 -1.47328792E-07
 -1.65518264E-06  2.67489022E-04  1.39382215E-03  1.83612088E-02  3.16298402E-02
 -3.34942027E-02  1.85586323E-01  3.01653054E-04 -1.01797049E-01 -5.12916931E-02
  2.53305197E-01  4.83367918E-04 -1.15179064E-01 -6.17028225E-02  2.56620113E-01
 -3.79799100E-05 -5.62360926E-05 -7.57877960E-05 -5.73138928E-04 -8.41476405E-03
  6.68854453E-05 -7.28637947E-05 -5.41147295E-04 -1.18223875E-02  1.14729258E-03
 -4.93761662E-04 -9.16588152E-03  2.12942783E-02 -2.68289490E-04 -4.50659659E-03
 -2.38360663E-03 -1.66365089E-04 -1.96914178E-04  1.06007523E-02  3.06064514E-02
  4.61985954E-02 -2.58613175E-03 -1.07910663E-03  8.20954427E-04  9.56874514E-04
 -8.30458471E-04 -3.79897938E-03  3.28255360E-04 -4.95056923E-05 -5.65073688E-04
 -1.16477368E-02 -3.06128518E-02 -4.29024186E-02  2.29999398E-03  9.83765574E-04
  9.73362433E-04  8.58392704E-05  1.31938222E-04  1.70123517E-04  2.26126943E-04
  6.67725471E-02 -3.49141875E-04  2.89485413E-04  4.53023097E-04  9.56965787E-02
 -5.51887718E-04 -7.58673851E-06  4.25479067E-03  7.97811686E-02  4.74676827E-05
 -1.05185766E-02 -3.98797175E-02  4.40740193E-05 -1.20351168E-04  3.95323185E-06
  3.48532126E-06 -1.00419620E-04 -4.77770606E-06 -8.97194028E-02  1.56988331E-04
 -1.92740672E-04  2.47462760E-05 -1.19961075E-01 -2.36872207E-03 -3.27010804E-04
  3.50361951E-04 -1.68182267E-01 -6.47544883E-06 -9.17425208E-04  5.38313304E-04
 -2.43115956E-06 -5.21545974E-06 -5.11343560E-05 -8.06960527E-05 -6.74682319E-05
 -1.00151755E-05  2.09740163E-01  5.47724161E-05 -1.27639704E-05  4.64931229E-05
  2.93645822E-01  2.70037874E-03  1.78160117E-04  3.46064792E-04  3.21714017E-01
 -8.76924019E-07 -7.77586315E-06 -2.79347214E-04  3.37552595E-04  1.07376514E-05
  1.54518134E-05 -2.28915469E-04  4.95220972E-04  1.12992261E-05  1.26516626E-03
 -1.32762673E-03  1.36888566E-03  4.26907792E-05  3.29630790E-05  2.65003715E-06
 -1.17607130E-06 -7.71679490E-05 -1.97387282E-04  5.77378806E-06 -2.10565656E-04
 -3.76977442E-04 -4.03748118E-05 -1.01418021E-05 -2.48335864E-05 -1.75303912E-04
 -6.65510541E-05  9.40858224E-04  8.55333203E-06 -4.51831942E-05 -1.02527625E-06
  1.43415448E-05 -1.87864433E-04 -3.21863665E-04 -3.50516686E-05 -1.25150437E-05
  2.36054739E-05  2.17559413E-03  2.91590577E-03  1.91888063E-03  4.00187107E-03
 -2.38020308E-05 -6.83115632E-03  2.75394762E-03  5.39350792E-03 -3.45941502E-05
 -2.28210538E-03 -6.44547861E-04 -9.94754612E-04 -3.18195545E-05  2.13236432E-04
  2.90505268E-06  5.87695760E-06  2.25543883E-04 -4.08129959E-04 -1.39612999E-04
 -2.37330945E-04  1.24090331E-03 -3.85812552E-04 -9.07137665E-06  6.75701028E-04
  1.74806902E-03 -5.17359827E-04 -1.34277337E-05  1.13039622E-03  1.86541179E-03
 -5.56460351E-04 -8.26113174E-06 -4.89772170E-05 -9.56917113E-07  1.94687154E-06
  1.00202665E-04 -2.01508848E-04  3.84276490E-05  1.38664895E-04 -2.88706279E-03
 -5.36258999E-03 -2.08060619E-05 -5.28867229E-04 -3.96581854E-03 -7.36470878E-03
 -3.09933288E-05  2.20017928E-03 -3.51670710E-03 -6.39446374E-03 -2.83490502E-05
  3.26106467E-04  1.91675057E-06  2.88258200E-06  9.95600062E-07  1.07334084E-06
  2.06432305E-04 -1.01057249E-05  2.93960533E-06  6.10342175E-06  3.43633595E-04
  1.96817734E-05 -4.54818051E-06 -1.38317269E-04  4.53555588E-04 -7.33845894E-08
 -1.72761418E-04 -1.58170895E-05 -1.11141951E-06 -3.19463747E-06  2.03495146E-05
  3.74240281E-04  6.82659689E-04 -1.98714608E-05 -2.05332984E-06  9.32633964E-06
 -4.42308731E-06 -3.64240669E-05 -7.42434154E-05  7.88903993E-06 -4.13530562E-06
  1.53684495E-05 -1.80251474E-05 -3.60541448E-04 -6.17154192E-04  1.37687891E-05
  3.87687312E-06  7.22194473E-06  5.14306978E-06  6.75011752E-06  1.80779170E-06
  1.39960151E-05  2.85241283E-03 -1.48161279E-05  3.08741957E-06  2.15242171E-05
  4.12554998E-03 -2.20404357E-05  5.67938044E-07  6.93935894E-05  3.51095823E-03
  2.30156936E-06 -3.30403380E-04 -6.56908454E-04 -2.64602212E-07 -6.87814076E-07
 -2.66175480E-06 -3.42261301E-06  1.07909542E-05 -5.83075851E-06 -2.98588160E-06
  9.48459352E-06  1.44214796E-05 -7.94889767E-06  1.68987899E-04 -3.54517740E-05
  1.28175173E-05 -8.73285659E-08 -9.50447743E-04 -1.10546292E-06  5.14866452E-05
 -1.54801152E-04 -3.63902657E-07 -1.37963555E-06 -4.03526209E-06 -6.03875883E-06
 -6.73387150E-06 -3.54551998E-06  4.99234335E-03  1.34537956E-05 -7.89590779E-06
 -3.53582053E-06  7.06863959E-03  6.09714311E-05 -3.71300967E-06  2.21104145E-06
  7.22333622E-03 -4.34165449E-07  2.01856078E-04 -1.66670069E-06 -2.31091811E-06
 -3.95355765E-06 -1.89349505E-05 -8.22758951E-05 -3.24444224E-08 -3.48448698E-06
 -1.96143833E-05 -1.85145535E-05  5.99248736E-05 -1.51257836E-05 -2.43870947E-04
  1.54206721E-04 -1.09830826E-05 -3.76904295E-04 -7.52012660E-05 -6.89958406E-06
 -6.49588534E-06  3.62990546E-04  1.09679299E-03  1.38734719E-03 -3.86112838E-05
 -2.78874299E-05  1.94220840E-05  3.53278968E-05 -2.47232749E-06 -8.67405834E-05
  1.13133131E-05 -3.10654334E-06  2.07925855E-06 -4.01659678E-04 -1.14356893E-03
 -1.32451429E-03  2.96627016E-05  2.69277020E-05  2.36528391E-05  1.14886960E-05
  1.56402497E-05  1.76188972E-05  2.54181581E-05  5.55152923E-03 -3.55439429E-05
  2.68358308E-05  3.80195327E-05  8.01275854E-03 -4.42047942E-05  3.94109406E-06
  1.10934044E-04  6.95419731E-03  5.10261547E-06 -6.71066878E-04 -1.05861443E-03
  1.27683175E-06 -6.01573034E-06 -1.55618832E-06 -2.67812934E-06  1.33996692E-05
 -9.47870531E-06  8.89295383E-04  1.19968784E-05  1.79721255E-05 -1.25375319E-05
  1.57005708E-03 -5.44109732E-05  1.46544604E-05 -3.08697007E-06 -4.02931381E-04
 -1.82723439E-06  1.18487714E-04 -3.43764608E-04  3.99827590E-08 -2.43521256E-06
  2.60824678E-06  4.88861668E-06 -3.79365843E-06 -1.60377714E-05  8.95921803E-03
 -2.11122830E-05 -2.61874531E-06 -2.02042565E-05  1.27147553E-02  6.75918445E-05
  5.82220810E-06 -6.27925114E-06  1.28022020E-02 -7.14563056E-07  3.70746019E-04
  6.88679334E-04 -3.39251506E-04 -5.42879121E-04 -2.08615014E-03  4.46386561E-05
 -8.68124484E-06  1.50641856E-03 -2.85061176E-03  9.92239360E-05 -2.08231969E-05
 -5.16177191E-04 -2.65024083E-03  1.02453876E-03  1.16615771E-04 -1.51898000E-04
  1.86506990E-06 -1.10562062E-06  1.96815685E-04 -7.18812050E-05 -2.74828505E-04
 -2.61438996E-04 -3.89412969E-04 -7.13738093E-05 -8.72962628E-06 -1.44948225E-05
 -3.49820955E-04 -7.29503134E-04  1.68175468E-03 -2.61020884E-04 -7.39704162E-05
 -3.23652557E-06 -2.87306682E-04 -3.90240266E-04 -4.50911677E-04 -6.98470223E-05
 -3.10053293E-06  1.57638487E-05  2.12787806E-03  2.95885696E-03  5.72293382E-03
  2.00702056E-03 -8.07409828E-06 -7.45852760E-03  8.03223641E-03  2.78049496E-03
 -1.24450550E-05 -1.27350177E-03  2.99370005E-03 -2.96715572E-03 -2.51812017E-05
  2.65934695E-04 -2.08974765E-07  6.10640938E-07 -2.47410130E-04 -1.22029347E-03
  2.04448286E-04  1.47970174E-04 -6.19427160E-04  1.13236853E-03 -1.78157124E-06
  5.59906448E-05 -8.59180821E-04  1.77649981E-03 -1.51072390E-06  3.80991266E-03
 -1.23722585E-03  1.15229987E-04 -3.61036463E-06  1.36615993E-04 -2.25559369E-07
 -4.05353343E-07  3.42696021E-04 -4.97560536E-05  5.25279200E-04  9.20800808E-04
  3.72859812E-03 -9.11938016E-03  6.47882882E-06 -2.83627133E-03  5.38076468E-03
 -1.26679386E-02  6.59759197E-06  1.13632219E-04  6.03587542E-03 -1.16984083E-02
  1.62641163E-05  3.19296362E-04  1.36606068E-07  1.81106969E-06  8.09641937E-04
 -2.15110186E-05  4.70448216E-05 -3.17409149E-04  3.15552709E-04  6.80424832E-06
 -3.15205129E-04 -6.86212412E-04  4.32902765E-04  1.16399544E-05 -5.15148188E-03
  1.86531546E-03 -8.28989265E-04  6.86130904E-05 -1.08255424E-04  1.06306853E-07
 -1.07473070E-05  3.41258251E-04  4.37266703E-04  1.45123704E-04  7.22086933E-04
  1.12983308E-03  4.56915728E-05  5.20500902E-05  8.30621394E-05 -7.48221383E-04
 -1.23230474E-03 -9.68071928E-04 -1.27853028E-04 -7.56173719E-06 -3.54779297E-06
  7.91457139E-05  5.30371094E-04  9.15279395E-04  4.38417715E-05  6.71431169E-05
 -7.29973735E-05 -3.08788144E-03 -4.18711409E-03 -6.00372115E-04 -7.26118856E-03
  2.20907965E-05  9.81755171E-03 -1.08496121E-03 -9.69573270E-03  3.32409756E-05
  3.60427642E-03  3.99595549E-03  1.38923866E-05  4.18747035E-06 -3.60118724E-04
 -9.81682274E-07 -8.53103241E-06 -1.04652148E-03  4.48877889E-04  4.00887324E-04
  5.92895516E-04 -1.42627795E-03  1.94623028E-03  6.76203108E-06 -1.53006082E-03
 -2.03723764E-03  2.80913054E-03  9.83915552E-06  3.12840931E-04 -2.29100429E-03
  1.76043171E-03  8.15370795E-06  1.83466887E-04  1.22211611E-06 -2.62152740E-06
  5.03270322E-05  3.37875996E-04 -7.00220438E-04 -1.23585179E-03  8.78541205E-03
  5.26033687E-03  2.47316920E-06  3.73178166E-03  1.22343816E-02  7.12620562E-03
  4.39908420E-06 -4.78770707E-04  1.16801863E-02  5.57990930E-03  7.39510441E-06
 -4.73794111E-04 -3.80694718E-07 -7.05875249E-07 -1.67519220E-04  9.20296558E-04
Mulliken Charges                           R   N=           7
 -3.58748875E-01  8.91039488E-02  7.46631916E-02  9.15774725E-02  2.05332916E-01
 -5.52730610E-01 -5.49198044E-01
ESP Charges                                R   N=           7
 -3.23320557E-01  5.10021451E-02  3.90951272E-02  5.45446748E-02  7.93363176E-01
 -8.09375153E-01 -8.05309413E-01
ONIOM Charges                              I   N=          16
          -1           0           0           0           0           0
           0           0           0           0           0           0
           0           0           0           0
ONIOM Multiplicities                       I   N=          16
           1           0           0           0           0           0
           0           0           0           0           0           0
           0           0           0           0
Atom Layers                                I   N=           7
           1           1           1           1           1           1
           1
Atom Modifiers                             I   N=           7
           0           0           0           0           0           0
           0
Force Field                                I                0
Atom Modified Types                        C   N=           7
                                                            
                        
Int Atom Modified Types                    I   N=           7
           0           0           0           0           0           0
           0
Link Atoms                                 I   N=           7
           0           0           0           0           0           0
           0
Atom Modified MM Charges                   R   N=           7
  0.00000000E+00  0.00000000E+00  0.00000000E+00  0.00000000E+00  0.00000000E+00
  0.00000000E+00  0.00000000E+00
Link Distances                             R   N=          28
  0.00000000E+00  0.00000000E+00  0.00000000E+00  0.00000000E+00  0.00000000E+00
  0.00000000E+00  0.00000000E+00  0.00000000E+00  0.00000000E+00  0.00000000E+00
  0.00000000E+00  0.00000000E+00  0.00000000E+00  0.00000000E+00  0.00000000E+00
  0.00000000E+00  0.00000000E+00  0.00000000E+00  0.00000000E+00  0.00000000E+00
  0.00000000E+00  0.00000000E+00  0.00000000E+00  0.00000000E+00  0.00000000E+00
  0.00000000E+00  0.00000000E+00  0.00000000E+00
Cartesian Gradient                         R   N=          21
  0.00000000E+00  0.00000000E+00  0.00000000E+00  0.00000000E+00  0.00000000E+00
  0.00000000E+00  0.00000000E+00  0.00000000E+00  0.00000000E+00  0.00000000E+00
  0.00000000E+00  0.00000000E+00  0.00000000E+00  0.00000000E+00  0.00000000E+00
  0.00000000E+00  0.00000000E+00  0.00000000E+00  0.00000000E+00  0.00000000E+00
  0.00000000E+00
Nonadiabatic coupling                      R   N=          21
  0.00000000E+00  0.00000000E+00  0.00000000E+00  0.00000000E+00  0.00000000E+00
  0.00000000E+00  0.00000000E+00  0.00000000E+00  0.00000000E+00  0.00000000E+00
  0.00000000E+00  0.00000000E+00  0.00000000E+00  0.00000000E+00  0.00000000E+00
  0.00000000E+00  0.00000000E+00  0.00000000E+00  0.00000000E+00  0.00000000E+00
  0.00000000E+00
Dipole Moment                              R   N=           3
  1.59328614E+00 -3.74757563E-02  6.79583142E-03
Quadrupole Moment                          R   N=           6
 -5.20718797E-01 -3.35990217E+00  3.88062097E+00 -5.13663962E-02  2.11309218E-02
  6.66574969E-04
QEq coupling tensors                       R   N=          42
  1.97922106E-02  1.49371759E-02  3.94245811E-03  3.05863714E-03 -5.80734829E-04
 -2.37346688E-02  9.67708108E-02 -8.44143629E-02  2.37831951E-02  1.22869997E-01
  1.86715117E-01 -1.20554006E-01  1.02798759E-01  1.46956259E-01 -2.51538363E-01
  8.35516523E-03 -2.29424909E-02  1.48739604E-01  9.96321259E-02 -6.59494531E-02
  6.77034161E-02 -1.28473815E-01 -1.63570001E-01 -1.67335542E-01  1.46302058E-01
  3.56611252E-03  2.52713063E-01 -1.47136785E-03  5.00597625E-05 -3.99015121E-01
  1.09369508E+00  8.19878328E-01 -6.88477284E-01 -9.02471429E-03 -2.84527256E-03
 -4.05217793E-01  9.85390512E-01 -9.78906391E-01 -5.17121144E-01 -9.03105041E-03
  3.52011945E-03 -4.68269367E-01
ClPar MaxAn                                I              200
ClPar NIntPar                              I                4
ClPar NRealPar                             I               16
ClPar NBits                                I               30
ClPar LenBitVec                            I                1
ClPar Read BitMap                          I   N=         200
           0           0           0           0           0           0
           0           0           0           0           0           0
           0           0           0           0           0           0
           0           0           0           0           0           0
           0           0           0           0           0           0
           0           0           0           0           0           0
           0           0           0           0           0           0
           0           0           0           0           0           0
           0           0           0           0           0           0
           0           0           0           0           0           0
           0           0           0           0           0           0
           0           0           0           0           0           0
           0           0           0           0           0           0
           0           0           0           0           0           0
           0           0           0           0           0           0
           0           0           0           0           0           0
           0           0           0           0           0           0
           0           0           0           0           0           0
           0           0           0           0           0           0
           0           0           0           0           0           0
           0           0           0           0           0           0
           0           0           0           0           0           0
           0           0           0           0           0           0
           0           0           0           0           0           0
           0           0           0           0           0           0
           0           0           0           0           0           0
           0           0           0           0           0           0
           0           0           0           0           0           0
           0           0           0           0           0           0
           0           0           0           0           0           0
           0           0           0           0           0           0
           0           0           0           0           0           0
           0           0           0           0           0           0
           0           0
ClPar Default BitMap                       I   N=         200
        2016        2016        2016        2016        2016        2016
        2016        2016        2016        2016        2016        2016
        2016        2016        2016        2016        2016        2016
        2016        2016        2016        2016        2016        2016
        2016        2016        2016        2016        2016        2016
        2016        2016        2016        2016        2016        2016
        2016        2016        2016        2016        2016        2016
        2016        2016        2016        2016        2016        2016
        2016        2016        2016        2016        2016        2016
        2016        2016        2016        2016        2016        2016
        2016        2016        2016        2016        2016        2016
        2016        2016        2016        2016        2016        2016
        2016        2016        2016        2016        2016        2016
        2016        2016        2016        2016        2016        2016
        2016        2016         480         480         480         480
         480         480         480         480         480         480
         480         480         480         480         480         480
         480         480         480         480         480         480
         480         480         480         480         480         480
         480         480         480         480         480         480
         480         480         480         480         480         480
         480         480         480         480         480         480
         480         480         480         480         480         480
         480         480         480         480         480         480
         480         480         480         480         480         480
         480         480         480         480         480         480
         480         480         480         480         480         480
         480         480         480         480         480         480
         480         480         480         480         480         480
         480         480         480         480         480         480
         480         480         480         480         480         480
         480         480         480         480         480         480
         480         480         480         480         480         480
         480         480
ClPar Int Params                           I   N=         800
           0           0           0           0           0           0
           0           0           0           0           0           0
           0           0           0           0           0           0
           0           0           0           0           0           0
           0           0           0           0           0           0
           0           0           0           0           0           0
           0           0           0           0           0           0
           0           0           0           0           0           0
           0           0           0           0           0           0
           0           0           0           0           0           0
           0           0           0           0           0           0
           0           0           0           0           0           0
           0           0           0           0           0           0
           0           0           0           0           0           0
           0           0           0           0           0           0
           0           0           0           0           0           0
           0           0           0           0           0           0
           0           0           0           0           0           0
           0           0           0           0           0           0
           0           0           0           0           0           0
           0           0           0           0           0           0
           0           0           0           0           0           0
           0           0           0           0           0           0
           0           0           0           0           0           0
           0           0           0           0           0           0
           0           0           0           0           0           0
           0           0           0           0           0           0
           0           0           0           0           0           0
           0           0           0           0           0           0
           0           0           0           0           0           0
           0           0           0           0           0           0
           0           0           0           0           0           0
           0           0           0           0           0           0
           0           0           0           0           0           0
           0           0           0           0           0           0
           0           0           0           0           0           0
           0           0           0           0           0           0
           0           0           0           0           0           0
           0           0           0           0           0           0
           0           0           0           0           0           0
           0           0           0           0           0           0
           0           0           0           0           0           0
           0           0           0           0           0           0
           0           0           0           0           0           0
           0           0           0           0           0           0
           0           0           0           0           0           0
           0           0           0           0           0           0
           0           0           0           0           0           0
           0           0           0           0           0           0
           0           0           0           0           0           0
           0           0           0           0           0           0
           0           0           0           0           0           0
           0           0           0           0           0           0
           0           0           0           0           0           0
           0           0           0           0           0           0
           0           0           0           0           0           0
           0           0           0           0           0           0
           0           0           0           0           0           0
           0           0           0           0           0           0
           0           0           0           0           0           0
           0           0           0           0           0           0
           0           0           0           0           0           0
           0           0           0           0           0           0
           0           0           0           0           0           0
           0           0           0           0           0           0
           0           0           0           0           0           0
           0           0           0           0           0           0
           0           0           0           0           0           0
           0           0           0           0           0           0
           0           0           0           0           0           0
           0           0           0           0           0           0
           0           0           0           0           0           0
           0           0           0           0           0           0
           0           0           0           0           0           0
           0           0           0           0           0           0
           0           0           0           0           0           0
           0           0           0           0           0           0
           0           0           0           0           0           0
           0           0           0           0           0           0
           0           0           0           0           0           0
           0           0           0           0           0           0
           0           0           0           0           0           0
           0           0           0           0           0           0
           0           0           0           0           0           0
           0           0           0           0           0           0
           0           0           0           0           0           0
           0           0           0           0           0           0
           0           0           0           0           0           0
           0           0           0           0           0           0
           0           0           0           0           0           0
           0           0           0           0           0           0
           0           0           0           0           0           0
           0           0           0           0           0           0
           0           0           0           0           0           0
           0           0           0           0           0           0
           0           0           0           0           0           0
           0           0           0           0           0           0
           0           0           0           0           0           0
           0           0           0           0           0           0
           0           0           0           0           0           0
           0           0           0           0           0           0
           0           0           0           0           0           0
           0           0           0           0           0           0
           0           0           0           0           0           0
           0           0           0           0           0           0
           0           0           0           0           0           0
           0           0           0           0           0           0
           0           0           0           0           0           0
           0           0           0           0           0           0
           0           0           0           0           0           0
           0           0           0           0           0           0
           0           0           0           0           0           0
           0           0           0           0           0           0
           0           0           0           0           0           0
           0           0           0           0           0           0
           0           0           0           0           0           0
           0           0           0           0           0           0
           0           0           0           0           0           0
           0           0           0           0           0           0
           0           0           0           0           0           0
           0           0           0           0           0           0
           0           0           0           0           0           0
           0           0           0           0           0           0
           0           0           0           0           0           0
           0           0           0           0           0           0
           0           0           0           0           0           0
           0           0           0           0           0           0
           0           0           0           0           0           0
           0           0           0           0           0           0
           0           0           0           0           0           0
           0           0           0           0           0           0
           0           0           0           0           0           0
           0           0           0           0           0           0
           0           0
ClPar Real Params                          R   N=        3200
  0.00000000E+00  0.00000000E+00  0.00000000E+00  0.00000000E+00  0.00000000E+00
  0.00000000E+00  0.00000000E+00  0.00000000E+00  0.00000000E+00  0.00000000E+00
  0.00000000E+00  0.00000000E+00  0.00000000E+00  0.00000000E+00  0.00000000E+00
  0.00000000E+00  0.00000000E+00  0.00000000E+00  0.00000000E+00  0.00000000E+00
  0.00000000E+00  0.00000000E+00  0.00000000E+00  0.00000000E+00  0.00000000E+00
  0.00000000E+00  0.00000000E+00  0.00000000E+00  0.00000000E+00  0.00000000E+00
  0.00000000E+00  0.00000000E+00  0.00000000E+00  0.00000000E+00  0.00000000E+00
  0.00000000E+00  0.00000000E+00  0.00000000E+00  0.00000000E+00  0.00000000E+00
  0.00000000E+00  0.00000000E+00  0.00000000E+00  0.00000000E+00  0.00000000E+00
  0.00000000E+00  0.00000000E+00  0.00000000E+00  0.00000000E+00  0.00000000E+00
  0.00000000E+00  0.00000000E+00  0.00000000E+00  0.00000000E+00  0.00000000E+00
  0.00000000E+00  0.00000000E+00  0.00000000E+00  0.00000000E+00  0.00000000E+00
  0.00000000E+00  0.00000000E+00  0.00000000E+00  0.00000000E+00  0.00000000E+00
  0.00000000E+00  0.00000000E+00  0.00000000E+00  0.00000000E+00  0.00000000E+00
  0.00000000E+00  0.00000000E+00  0.00000000E+00  0.00000000E+00  0.00000000E+00
  0.00000000E+00  0.00000000E+00  0.00000000E+00  0.00000000E+00  0.00000000E+00
  0.00000000E+00  0.00000000E+00  0.00000000E+00  0.00000000E+00  0.00000000E+00
  0.00000000E+00  0.00000000E+00  0.00000000E+00  0.00000000E+00  0.00000000E+00
  0.00000000E+00  0.00000000E+00  0.00000000E+00  0.00000000E+00  0.00000000E+00
  0.00000000E+00  0.00000000E+00  0.00000000E+00  0.00000000E+00  0.00000000E+00
  0.00000000E+00  0.00000000E+00  0.00000000E+00  0.00000000E+00  0.00000000E+00
  0.00000000E+00  0.00000000E+00  0.00000000E+00  0.00000000E+00  0.00000000E+00
  0.00000000E+00  0.00000000E+00  0.00000000E+00  0.00000000E+00  0.00000000E+00
  0.00000000E+00  0.00000000E+00  0.00000000E+00  0.00000000E+00  0.00000000E+00
  0.00000000E+00  0.00000000E+00  0.00000000E+00  0.00000000E+00  0.00000000E+00
  0.00000000E+00  0.00000000E+00  0.00000000E+00  0.00000000E+00  0.00000000E+00
  0.00000000E+00  0.00000000E+00  0.00000000E+00  0.00000000E+00  0.00000000E+00
  0.00000000E+00  0.00000000E+00  0.00000000E+00  0.00000000E+00  0.00000000E+00
  0.00000000E+00  0.00000000E+00  0.00000000E+00  0.00000000E+00  0.00000000E+00
  0.00000000E+00  0.00000000E+00  0.00000000E+00  0.00000000E+00  0.00000000E+00
  0.00000000E+00  0.00000000E+00  0.00000000E+00  0.00000000E+00  0.00000000E+00
  0.00000000E+00  0.00000000E+00  0.00000000E+00  0.00000000E+00  0.00000000E+00
  0.00000000E+00  0.00000000E+00  0.00000000E+00  0.00000000E+00  0.00000000E+00
  0.00000000E+00  0.00000000E+00  0.00000000E+00  0.00000000E+00  0.00000000E+00
  0.00000000E+00  0.00000000E+00  0.00000000E+00  0.00000000E+00  0.00000000E+00
  0.00000000E+00  0.00000000E+00  0.00000000E+00  0.00000000E+00  0.00000000E+00
  0.00000000E+00  0.00000000E+00  0.00000000E+00  0.00000000E+00  0.00000000E+00
  0.00000000E+00  0.00000000E+00  0.00000000E+00  0.00000000E+00  0.00000000E+00
  0.00000000E+00  0.00000000E+00  0.00000000E+00  0.00000000E+00  0.00000000E+00
  0.00000000E+00  0.00000000E+00  0.00000000E+00  0.00000000E+00  0.00000000E+00
  2.26000000E-01  4.43000000E-01  1.01000000E-01  1.47000000E-01  1.92000000E-01
  2.40000000E-01  2.75000000E-01  3.03000000E-01  3.25000000E-01  4.13000000E-01
  9.60000000E-02  1.35000000E-01  1.73000000E-01  2.11000000E-01  2.48000000E-01
  2.86000000E-01  3.23000000E-01  3.60000000E-01  8.20000000E-02  1.04000000E-01
  1.17000000E-01  1.23000000E-01  1.29000000E-01  1.34000000E-01  1.40000000E-01
  1.44000000E-01  1.48000000E-01  1.52000000E-01  1.55000000E-01  1.76000000E-01
  1.98000000E-01  2.19000000E-01  2.39000000E-01  2.60000000E-01  2.80000000E-01
  3.00000000E-01  7.90000000E-02  9.90000000E-02  1.19000000E-01  1.26000000E-01
  1.33000000E-01  1.40000000E-01  1.47000000E-01  1.53000000E-01  1.58000000E-01
  1.63000000E-01  1.57000000E-01  1.70000000E-01  1.87000000E-01  2.03000000E-01
  2.19000000E-01  2.34000000E-01  2.50000000E-01  2.65000000E-01  7.40000000E-02
  9.20000000E-02  1.05000000E-01  1.06000000E-01  1.07000000E-01  1.08000000E-01
  1.09000000E-01  1.10000000E-01  1.11000000E-01  1.12000000E-01  1.13000000E-01
  1.14000000E-01  1.15000000E-01  1.16000000E-01  1.17000000E-01  1.17000000E-01
  1.26000000E-01  1.36000000E-01  1.46000000E-01  1.55000000E-01  1.65000000E-01
  1.73000000E-01  1.82000000E-01  1.90000000E-01  1.62000000E-01  1.78000000E-01
  1.10000000E-01  1.35000000E-01  1.59000000E-01  1.83000000E-01  2.07000000E-01
  2.31000000E-01  6.90000000E-02  9.40000000E-02  1.02000000E-01  1.03000000E-01
  1.05000000E-01  1.07000000E-01  1.09000000E-01  1.11000000E-01  1.13000000E-01
  1.15000000E-01  1.17000000E-01  1.19000000E-01  1.20000000E-01  1.22000000E-01
  1.24000000E-01  1.26000000E-01  1.28000000E-01  1.28000000E-01  1.28000000E-01
  1.28000000E-01  1.28000000E-01  1.28000000E-01  1.28000000E-01  1.28000000E-01
  1.28000000E-01  1.28000000E-01  1.28000000E-01  1.28000000E-01  1.28000000E-01
  1.28000000E-01  1.28000000E-01  1.28000000E-01  1.28000000E-01  1.28000000E-01
  1.28000000E-01  1.28000000E-01  1.28000000E-01  1.28000000E-01  1.28000000E-01
  1.28000000E-01  1.28000000E-01  1.28000000E-01  1.28000000E-01  1.28000000E-01
  1.28000000E-01  1.28000000E-01  1.28000000E-01  1.28000000E-01  1.28000000E-01
  1.28000000E-01  1.28000000E-01  1.28000000E-01  1.28000000E-01  1.28000000E-01
  1.28000000E-01  1.28000000E-01  1.28000000E-01  1.28000000E-01  1.28000000E-01
  1.28000000E-01  1.28000000E-01  1.28000000E-01  1.28000000E-01  1.28000000E-01
  1.28000000E-01  1.28000000E-01  1.28000000E-01  1.28000000E-01  1.28000000E-01
  1.28000000E-01  1.28000000E-01  1.28000000E-01  1.28000000E-01  1.28000000E-01
  1.28000000E-01  1.28000000E-01  1.28000000E-01  1.28000000E-01  1.28000000E-01
  1.28000000E-01  1.28000000E-01  1.28000000E-01  1.28000000E-01  1.28000000E-01
  1.28000000E-01  1.28000000E-01  1.28000000E-01  1.28000000E-01  1.28000000E-01
  1.28000000E-01  1.28000000E-01  1.28000000E-01  1.28000000E-01  1.28000000E-01
  1.28000000E-01  1.28000000E-01  1.28000000E-01  1.28000000E-01  1.28000000E-01
  1.28000000E-01  1.28000000E-01  1.28000000E-01  1.28000000E-01  1.28000000E-01
  1.28000000E-01  1.28000000E-01  1.28000000E-01  1.28000000E-01  1.28000000E-01
  1.28000000E-01  1.28000000E-01  1.28000000E-01  1.28000000E-01  1.28000000E-01
  5.47000000E-01  5.92000000E-01  5.99000000E-01  6.68000000E-01  6.98000000E-01
  7.18000000E-01  7.26000000E-01  7.36000000E-01  7.43000000E-01  7.45000000E-01
  6.07000000E-01  6.66000000E-01  6.93000000E-01  7.09000000E-01  7.20000000E-01
  7.29000000E-01  7.35000000E-01  7.40000000E-01  6.08000000E-01  7.34000000E-01
  7.46000000E-01  7.55000000E-01  7.61000000E-01  7.65000000E-01  7.67000000E-01
  7.60000000E-01  7.49000000E-01  7.33000000E-01  7.08000000E-01  6.48000000E-01
  6.88000000E-01  7.09000000E-01  7.22000000E-01  7.31000000E-01  7.38000000E-01
  7.44000000E-01  6.09000000E-01  7.30000000E-01  7.41000000E-01  7.52000000E-01
  7.58000000E-01  7.63000000E-01  7.66000000E-01  7.58000000E-01  7.48000000E-01
  7.33000000E-01  7.01000000E-01  6.45000000E-01  6.86000000E-01  7.08000000E-01
  7.22000000E-01  7.31000000E-01  7.38000000E-01  7.44000000E-01  6.08000000E-01
  7.28000000E-01  7.32000000E-01  7.32000000E-01  7.32000000E-01  7.32000000E-01
  7.32000000E-01  7.32000000E-01  7.32000000E-01  7.32000000E-01  7.32000000E-01
  7.31000000E-01  7.31000000E-01  7.31000000E-01  7.31000000E-01  7.46000000E-01
  7.37000000E-01  7.46000000E-01  7.51000000E-01  7.55000000E-01  7.58000000E-01
  7.47000000E-01  7.32000000E-01  7.11000000E-01  7.41000000E-01  7.07000000E-01
  7.47000000E-01  7.43000000E-01  7.42000000E-01  7.42000000E-01  7.43000000E-01
  7.44000000E-01  6.05000000E-01  7.24000000E-01  7.26000000E-01  7.26000000E-01
  7.27000000E-01  7.27000000E-01  7.27000000E-01  7.28000000E-01  7.28000000E-01
  7.28000000E-01  7.28000000E-01  7.28000000E-01  7.29000000E-01  7.29000000E-01
  7.29000000E-01  7.29000000E-01  7.29000000E-01  7.29000000E-01  7.29000000E-01
  7.29000000E-01  7.29000000E-01  7.29000000E-01  7.29000000E-01  7.29000000E-01
  7.29000000E-01  7.29000000E-01  7.29000000E-01  7.29000000E-01  7.29000000E-01
  7.29000000E-01  7.29000000E-01  7.29000000E-01  7.29000000E-01  7.29000000E-01
  7.29000000E-01  7.29000000E-01  7.29000000E-01  7.29000000E-01  7.29000000E-01
  7.29000000E-01  7.29000000E-01  7.29000000E-01  7.29000000E-01  7.29000000E-01
  7.29000000E-01  7.29000000E-01  7.29000000E-01  7.29000000E-01  7.29000000E-01
  7.29000000E-01  7.29000000E-01  7.29000000E-01  7.29000000E-01  7.29000000E-01
  7.29000000E-01  7.29000000E-01  7.29000000E-01  7.29000000E-01  7.29000000E-01
  7.29000000E-01  7.29000000E-01  7.29000000E-01  7.29000000E-01  7.29000000E-01
  7.29000000E-01  7.29000000E-01  7.29000000E-01  7.29000000E-01  7.29000000E-01
  7.29000000E-01  7.29000000E-01  7.29000000E-01  7.29000000E-01  7.29000000E-01
  7.29000000E-01  7.29000000E-01  7.29000000E-01  7.29000000E-01  7.29000000E-01
  7.29000000E-01  7.29000000E-01  7.29000000E-01  7.29000000E-01  7.29000000E-01
  7.29000000E-01  7.29000000E-01  7.29000000E-01  7.29000000E-01  7.29000000E-01
  7.29000000E-01  7.29000000E-01  7.29000000E-01  7.29000000E-01  7.29000000E-01
  7.29000000E-01  7.29000000E-01  7.29000000E-01  7.29000000E-01  7.29000000E-01
  7.29000000E-01  7.29000000E-01  7.29000000E-01  7.29000000E-01  7.29000000E-01
  7.29000000E-01  7.29000000E-01  7.29000000E-01  7.29000000E-01  7.29000000E-01
  7.29000000E-01  7.29000000E-01  7.29000000E-01  7.29000000E-01  7.29000000E-01
  1.00000000E+00  1.70400000E+00  3.23000000E-01  3.89000000E-01  4.67000000E-01
  5.67000000E-01  6.36000000E-01  6.64000000E-01  6.96000000E-01  8.79000000E-01
  3.07000000E-01  3.48000000E-01  4.00000000E-01  4.54000000E-01  5.09000000E-01
  5.65000000E-01  6.21000000E-01  6.77000000E-01  2.56000000E-01  3.50000000E-01
  3.64000000E-01  3.62000000E-01  3.62000000E-01  3.62000000E-01  3.62000000E-01
  3.65000000E-01  3.69000000E-01  3.75000000E-01  3.86000000E-01  4.46000000E-01
  4.55000000E-01  4.74000000E-01  4.96000000E-01  5.20000000E-01  5.45000000E-01
  5.70000000E-01  2.45000000E-01  3.22000000E-01  3.55000000E-01  3.59000000E-01
  3.64000000E-01  3.70000000E-01  3.76000000E-01  3.85000000E-01  3.95000000E-01
  4.08000000E-01  3.76000000E-01  4.23000000E-01  4.22000000E-01  4.32000000E-01
  4.45000000E-01  4.59000000E-01  4.75000000E-01  4.91000000E-01  2.28000000E-01
  2.92000000E-01  2.89000000E-01  2.92000000E-01  2.95000000E-01  2.98000000E-01
  3.00000000E-01  3.03000000E-01  3.06000000E-01  3.09000000E-01  3.12000000E-01
  3.15000000E-01  3.18000000E-01  3.21000000E-01  3.24000000E-01  3.61000000E-01
  3.69000000E-01  3.70000000E-01  3.72000000E-01  3.75000000E-01  3.78000000E-01
  3.85000000E-01  3.94000000E-01  4.07000000E-01  5.26000000E-01  6.21000000E-01
  3.36000000E-01  3.54000000E-01  3.71000000E-01  3.86000000E-01  4.02000000E-01
  4.17000000E-01  2.09000000E-01  2.94000000E-01  2.65000000E-01  2.72000000E-01
  2.78000000E-01  2.84000000E-01  2.91000000E-01  2.97000000E-01  3.03000000E-01
  3.10000000E-01  3.16000000E-01  3.22000000E-01  3.29000000E-01  3.35000000E-01
  3.41000000E-01  3.48000000E-01  3.54000000E-01  3.54000000E-01  3.54000000E-01
  3.54000000E-01  3.54000000E-01  3.54000000E-01  3.54000000E-01  3.54000000E-01
  3.54000000E-01  3.54000000E-01  3.54000000E-01  3.54000000E-01  3.54000000E-01
  3.54000000E-01  3.54000000E-01  3.54000000E-01  3.54000000E-01  3.54000000E-01
  3.54000000E-01  3.54000000E-01  3.54000000E-01  3.54000000E-01  3.54000000E-01
  3.54000000E-01  3.54000000E-01  3.54000000E-01  3.54000000E-01  3.54000000E-01
  3.54000000E-01  3.54000000E-01  3.54000000E-01  3.54000000E-01  3.54000000E-01
  3.54000000E-01  3.54000000E-01  3.54000000E-01  3.54000000E-01  3.54000000E-01
  3.54000000E-01  3.54000000E-01  3.54000000E-01  3.54000000E-01  3.54000000E-01
  3.54000000E-01  3.54000000E-01  3.54000000E-01  3.54000000E-01  3.54000000E-01
  3.54000000E-01  3.54000000E-01  3.54000000E-01  3.54000000E-01  3.54000000E-01
  3.54000000E-01  3.54000000E-01  3.54000000E-01  3.54000000E-01  3.54000000E-01
  3.54000000E-01  3.54000000E-01  3.54000000E-01  3.54000000E-01  3.54000000E-01
  3.54000000E-01  3.54000000E-01  3.54000000E-01  3.54000000E-01  3.54000000E-01
  3.54000000E-01  3.54000000E-01  3.54000000E-01  3.54000000E-01  3.54000000E-01
  3.54000000E-01  3.54000000E-01  3.54000000E-01  3.54000000E-01  3.54000000E-01
  3.54000000E-01  3.54000000E-01  3.54000000E-01  3.54000000E-01  3.54000000E-01
  3.54000000E-01  3.54000000E-01  3.54000000E-01  3.54000000E-01  3.54000000E-01
  3.54000000E-01  3.54000000E-01  3.54000000E-01  3.54000000E-01  3.54000000E-01
  3.54000000E-01  3.54000000E-01  3.54000000E-01  3.54000000E-01  3.54000000E-01
  2.74000000E-01  2.96000000E-01  5.80000000E-02  4.40000000E-02  3.90000000E-02
  3.90000000E-02  3.60000000E-02  3.20000000E-02  2.90000000E-02  3.30000000E-02
  5.50000000E-02  3.90000000E-02  3.30000000E-02  3.00000000E-02  2.80000000E-02
  2.60000000E-02  2.50000000E-02  2.50000000E-02  4.50000000E-02  4.40000000E-02
  3.30000000E-02  2.50000000E-02  2.10000000E-02  1.80000000E-02  1.50000000E-02
  1.80000000E-02  2.10000000E-02  2.50000000E-02  3.30000000E-02  5.00000000E-02
  3.80000000E-02  3.10000000E-02  2.70000000E-02  2.40000000E-02  2.20000000E-02
  2.10000000E-02  4.30000000E-02  4.00000000E-02  3.20000000E-02  2.50000000E-02
  2.10000000E-02  1.80000000E-02  1.60000000E-02  1.90000000E-02  2.20000000E-02
  2.80000000E-02  3.10000000E-02  4.70000000E-02  3.40000000E-02  2.80000000E-02
  2.40000000E-02  2.10000000E-02  1.90000000E-02  1.80000000E-02  3.90000000E-02
  3.60000000E-02  2.50000000E-02  2.50000000E-02  2.50000000E-02  2.60000000E-02
  2.60000000E-02  2.60000000E-02  2.70000000E-02  2.70000000E-02  2.70000000E-02
  2.70000000E-02  2.80000000E-02  2.80000000E-02  2.80000000E-02  3.30000000E-02
  3.30000000E-02  2.60000000E-02  2.10000000E-02  1.80000000E-02  1.60000000E-02
  1.80000000E-02  2.20000000E-02  2.60000000E-02  4.90000000E-02  8.20000000E-02
  3.00000000E-02  2.40000000E-02  2.10000000E-02  1.80000000E-02  1.60000000E-02
  1.50000000E-02  3.50000000E-02  3.60000000E-02  2.20000000E-02  2.30000000E-02
  2.40000000E-02  2.40000000E-02  2.50000000E-02  2.50000000E-02  2.60000000E-02
  2.70000000E-02  2.70000000E-02  2.80000000E-02  2.80000000E-02  2.90000000E-02
  3.00000000E-02  3.00000000E-02  3.10000000E-02  3.10000000E-02  3.10000000E-02
  3.10000000E-02  3.10000000E-02  3.10000000E-02  3.10000000E-02  3.10000000E-02
  3.10000000E-02  3.10000000E-02  3.10000000E-02  3.10000000E-02  3.10000000E-02
  3.10000000E-02  3.10000000E-02  3.10000000E-02  3.10000000E-02  3.10000000E-02
  3.10000000E-02  3.10000000E-02  3.10000000E-02  3.10000000E-02  3.10000000E-02
  3.10000000E-02  3.10000000E-02  3.10000000E-02  3.10000000E-02  3.10000000E-02
  3.10000000E-02  3.10000000E-02  3.10000000E-02  3.10000000E-02  3.10000000E-02
  3.10000000E-02  3.10000000E-02  3.10000000E-02  3.10000000E-02  3.10000000E-02
  3.10000000E-02  3.10000000E-02  3.10000000E-02  3.10000000E-02  3.10000000E-02
  3.10000000E-02  3.10000000E-02  3.10000000E-02  3.10000000E-02  3.10000000E-02
  3.10000000E-02  3.10000000E-02  3.10000000E-02  3.10000000E-02  3.10000000E-02
  3.10000000E-02  3.10000000E-02  3.10000000E-02  3.10000000E-02  3.10000000E-02
  3.10000000E-02  3.10000000E-02  3.10000000E-02  3.10000000E-02  3.10000000E-02
  3.10000000E-02  3.10000000E-02  3.10000000E-02  3.10000000E-02  3.10000000E-02
  3.10000000E-02  3.10000000E-02  3.10000000E-02  3.10000000E-02  3.10000000E-02
  3.10000000E-02  3.10000000E-02  3.10000000E-02  3.10000000E-02  3.10000000E-02
  3.10000000E-02  3.10000000E-02  3.10000000E-02  3.10000000E-02  3.10000000E-02
  3.10000000E-02  3.10000000E-02  3.10000000E-02  3.10000000E-02  3.10000000E-02
  3.10000000E-02  3.10000000E-02  3.10000000E-02  3.10000000E-02  3.10000000E-02
  3.10000000E-02  3.10000000E-02  3.10000000E-02  3.10000000E-02  3.10000000E-02
 -5.92770000E-01 -9.17860000E-01 -2.48668000E+00 -8.36430000E-01 -3.18470000E-01
 -4.55790000E-01 -5.70730000E-01 -6.77940000E-01 -7.69860000E-01 -8.51140000E-01
 -1.51908000E+00 -3.18830000E-01 -2.17900000E-01 -3.01260000E-01 -3.72750000E-01
 -4.15890000E-01 -4.45930000E-01 -5.91320000E-01 -9.56370000E-01 -2.88450000E-01
 -4.87320000E-01 -6.34280000E-01 -7.17490000E-01 -7.91980000E-01 -8.68490000E-01
 -9.17520000E-01 -9.54890000E-01 -9.88460000E-01 -1.50055000E+00 -2.92560000E-01
 -2.14960000E-01 -2.91180000E-01 -3.42080000E-01 -3.84480000E-01 -4.34940000E-01
 -5.24310000E-01 -8.10070000E-01 -2.58460000E-01 -4.35550000E-01 -5.32740000E-01
 -6.08450000E-01 -6.10260000E-01 -7.58920000E-01 -8.90130000E-01 -8.45780000E-01
 -8.69340000E-01 -1.38234000E+00 -2.64850000E-01 -1.97280000E-01 -2.65040000E-01
 -2.94470000E-01 -3.16570000E-01 -3.63590000E-01 -4.57840000E-01 -8.61830000E-01
 -1.33004000E+00 -6.82880000E-01 -6.25540000E-01 -6.35430000E-01 -8.79690000E-01
 -9.02690000E-01 -9.59650000E-01 -1.01869000E+00 -6.81170000E-01 -7.96500000E-01
 -9.04950000E-01 -8.34790000E-01 -9.01560000E-01 -9.74130000E-01 -1.03326000E+00
 -7.15490000E-01 -7.83960000E-01 -8.28380000E-01 -5.61040000E-01 -1.03841000E+00
 -8.62500000E-01 -9.59300000E-01 -1.01755000E+00 -7.64900000E-01 -1.29467000E+00
 -1.92740000E-01 -2.56010000E-01 -3.19820000E-01 -1.94660000E-01 -2.60090000E-01
 -4.27990000E-01  0.00000000E+00  0.00000000E+00  0.00000000E+00  0.00000000E+00
  0.00000000E+00  0.00000000E+00  0.00000000E+00  0.00000000E+00  0.00000000E+00
  0.00000000E+00  0.00000000E+00  0.00000000E+00  0.00000000E+00  0.00000000E+00
  0.00000000E+00  0.00000000E+00  0.00000000E+00  0.00000000E+00  0.00000000E+00
  0.00000000E+00  0.00000000E+00  0.00000000E+00  0.00000000E+00  0.00000000E+00
  0.00000000E+00  0.00000000E+00  0.00000000E+00  0.00000000E+00  0.00000000E+00
  0.00000000E+00  0.00000000E+00  0.00000000E+00  0.00000000E+00  0.00000000E+00
  0.00000000E+00  0.00000000E+00  0.00000000E+00  0.00000000E+00  0.00000000E+00
  0.00000000E+00  0.00000000E+00  0.00000000E+00  0.00000000E+00  0.00000000E+00
  0.00000000E+00  0.00000000E+00  0.00000000E+00  0.00000000E+00  0.00000000E+00
  0.00000000E+00  0.00000000E+00  0.00000000E+00  0.00000000E+00  0.00000000E+00
  0.00000000E+00  0.00000000E+00  0.00000000E+00  0.00000000E+00  0.00000000E+00
  0.00000000E+00  0.00000000E+00  0.00000000E+00  0.00000000E+00  0.00000000E+00
  0.00000000E+00  0.00000000E+00  0.00000000E+00  0.00000000E+00  0.00000000E+00
  0.00000000E+00  0.00000000E+00  0.00000000E+00  0.00000000E+00  0.00000000E+00
  0.00000000E+00  0.00000000E+00  0.00000000E+00  0.00000000E+00  0.00000000E+00
  0.00000000E+00  0.00000000E+00  0.00000000E+00  0.00000000E+00  0.00000000E+00
  0.00000000E+00  0.00000000E+00  0.00000000E+00  0.00000000E+00  0.00000000E+00
  0.00000000E+00  0.00000000E+00  0.00000000E+00  0.00000000E+00  0.00000000E+00
  0.00000000E+00  0.00000000E+00  0.00000000E+00  0.00000000E+00  0.00000000E+00
  0.00000000E+00  0.00000000E+00  0.00000000E+00  0.00000000E+00  0.00000000E+00
  0.00000000E+00  0.00000000E+00  0.00000000E+00  0.00000000E+00  0.00000000E+00
  0.00000000E+00  0.00000000E+00  0.00000000E+00  0.00000000E+00  0.00000000E+00
  1.90440000E+00  1.36430000E+00  4.84000000E-01  7.31600000E+00  9.24030000E+00
  8.78200000E+00  5.61290000E+00  4.83340000E+00  3.24870000E+00  2.71090000E+00
  2.01130000E+00  1.50282000E+01  1.46788000E+01  2.13546000E+01  2.38290000E+01
  1.98022000E+01  1.50468000E+01  1.09745000E+01  1.27219000E+01  1.51949000E+01
  1.57342000E+01  2.79222000E+01  1.61366000E+01  2.21252000E+01  2.45676000E+01
  1.96016000E+01  1.79818000E+01  1.72396000E+01  5.01500000E+00  1.92898000E+01
  2.34477000E+01  2.23993000E+01  2.96586000E+01  2.60081000E+01  2.15580000E+01
  1.69594000E+01  1.56479000E+01  1.86897000E+01  1.93530000E+01  3.43444000E+01
  1.98480000E+01  2.72140000E+01  3.02182000E+01  2.41099000E+01  2.21176000E+01
  2.12047000E+01  7.56690000E+00  2.37264000E+01  2.93879000E+01  3.01278000E+01
  4.19382000E+01  3.85203000E+01  3.39511000E+01  2.75774000E+01  1.56460000E+01
  1.04460000E+01  2.01830000E+01  4.99540000E+01  4.76430000E+01  1.18690000E+01
  1.08670000E+01  9.96100000E+00  9.18700000E+00  3.67980000E+01  1.34070000E+01
  9.38200000E+00  9.81700000E+00  8.90800000E+00  8.40700000E+00  8.05800000E+00
  1.29600000E+01  2.67920000E+01  2.49300000E+01  3.45630000E+01  1.11860000E+01
  1.09440000E+01  1.01270000E+01  9.40400000E+00  1.36660000E+01  7.81000000E+00
  6.93600000E+01  5.86630000E+01  4.79690000E+01  4.52740000E+01  3.92290000E+01
  3.30660000E+01  0.00000000E+00  0.00000000E+00  0.00000000E+00  0.00000000E+00
  0.00000000E+00  0.00000000E+00  0.00000000E+00  0.00000000E+00  0.00000000E+00
  0.00000000E+00  0.00000000E+00  0.00000000E+00  0.00000000E+00  0.00000000E+00
  0.00000000E+00  0.00000000E+00  0.00000000E+00  0.00000000E+00  0.00000000E+00
  0.00000000E+00  0.00000000E+00  0.00000000E+00  0.00000000E+00  0.00000000E+00
  0.00000000E+00  0.00000000E+00  0.00000000E+00  0.00000000E+00  0.00000000E+00
  0.00000000E+00  0.00000000E+00  0.00000000E+00  0.00000000E+00  0.00000000E+00
  0.00000000E+00  0.00000000E+00  0.00000000E+00  0.00000000E+00  0.00000000E+00
  0.00000000E+00  0.00000000E+00  0.00000000E+00  0.00000000E+00  0.00000000E+00
  0.00000000E+00  0.00000000E+00  0.00000000E+00  0.00000000E+00  0.00000000E+00
  0.00000000E+00  0.00000000E+00  0.00000000E+00  0.00000000E+00  0.00000000E+00
  0.00000000E+00  0.00000000E+00  0.00000000E+00  0.00000000E+00  0.00000000E+00
  0.00000000E+00  0.00000000E+00  0.00000000E+00  0.00000000E+00  0.00000000E+00
  0.00000000E+00  0.00000000E+00  0.00000000E+00  0.00000000E+00  0.00000000E+00
  0.00000000E+00  0.00000000E+00  0.00000000E+00  0.00000000E+00  0.00000000E+00
  0.00000000E+00  0.00000000E+00  0.00000000E+00  0.00000000E+00  0.00000000E+00
  0.00000000E+00  0.00000000E+00  0.00000000E+00  0.00000000E+00  0.00000000E+00
  0.00000000E+00  0.00000000E+00  0.00000000E+00  0.00000000E+00  0.00000000E+00
  0.00000000E+00  0.00000000E+00  0.00000000E+00  0.00000000E+00  0.00000000E+00
  0.00000000E+00  0.00000000E+00  0.00000000E+00  0.00000000E+00  0.00000000E+00
  0.00000000E+00  0.00000000E+00  0.00000000E+00  0.00000000E+00  0.00000000E+00
  0.00000000E+00  0.00000000E+00  0.00000000E+00  0.00000000E+00  0.00000000E+00
  0.00000000E+00  0.00000000E+00  0.00000000E+00  0.00000000E+00  0.00000000E+00
  0.00000000E+00  0.00000000E+00  0.00000000E+00  0.00000000E+00  0.00000000E+00
  0.00000000E+00  0.00000000E+00  0.00000000E+00  0.00000000E+00  0.00000000E+00
  0.00000000E+00  0.00000000E+00  0.00000000E+00  0.00000000E+00  0.00000000E+00
  0.00000000E+00  0.00000000E+00  0.00000000E+00  0.00000000E+00  0.00000000E+00
  0.00000000E+00  0.00000000E+00  0.00000000E+00  0.00000000E+00  0.00000000E+00
  0.00000000E+00  0.00000000E+00  0.00000000E+00  0.00000000E+00  0.00000000E+00
  0.00000000E+00  0.00000000E+00  0.00000000E+00  0.00000000E+00  0.00000000E+00
  0.00000000E+00  0.00000000E+00  0.00000000E+00  0.00000000E+00  0.00000000E+00
  0.00000000E+00  0.00000000E+00  0.00000000E+00  0.00000000E+00  0.00000000E+00
  0.00000000E+00  0.00000000E+00  0.00000000E+00  0.00000000E+00  0.00000000E+00
  0.00000000E+00  0.00000000E+00  0.00000000E+00  0.00000000E+00  0.00000000E+00
  0.00000000E+00  0.00000000E+00  0.00000000E+00  0.00000000E+00  0.00000000E+00
  0.00000000E+00  0.00000000E+00  0.00000000E+00  0.00000000E+00  0.00000000E+00
  0.00000000E+00  0.00000000E+00  0.00000000E+00  0.00000000E+00  0.00000000E+00
  0.00000000E+00  0.00000000E+00  0.00000000E+00  0.00000000E+00  0.00000000E+00
  0.00000000E+00  0.00000000E+00  0.00000000E+00  0.00000000E+00  0.00000000E+00
  0.00000000E+00  0.00000000E+00  0.00000000E+00  0.00000000E+00  0.00000000E+00
  0.00000000E+00  0.00000000E+00  0.00000000E+00  0.00000000E+00  0.00000000E+00
  0.00000000E+00  0.00000000E+00  0.00000000E+00  0.00000000E+00  0.00000000E+00
  0.00000000E+00  0.00000000E+00  0.00000000E+00  0.00000000E+00  0.00000000E+00
  0.00000000E+00  0.00000000E+00  0.00000000E+00  0.00000000E+00  0.00000000E+00
  0.00000000E+00  0.00000000E+00  0.00000000E+00  0.00000000E+00  0.00000000E+00
  0.00000000E+00  0.00000000E+00  0.00000000E+00  0.00000000E+00  0.00000000E+00
  0.00000000E+00  0.00000000E+00  0.00000000E+00  0.00000000E+00  0.00000000E+00
  0.00000000E+00  0.00000000E+00  0.00000000E+00  0.00000000E+00  0.00000000E+00
  0.00000000E+00  0.00000000E+00  0.00000000E+00  0.00000000E+00  0.00000000E+00
  0.00000000E+00  0.00000000E+00  0.00000000E+00  0.00000000E+00  0.00000000E+00
  0.00000000E+00  0.00000000E+00  0.00000000E+00  0.00000000E+00  0.00000000E+00
  0.00000000E+00  0.00000000E+00  0.00000000E+00  0.00000000E+00  0.00000000E+00
  0.00000000E+00  0.00000000E+00  0.00000000E+00  0.00000000E+00  0.00000000E+00
  0.00000000E+00  0.00000000E+00  0.00000000E+00  0.00000000E+00  0.00000000E+00
  0.00000000E+00  0.00000000E+00  0.00000000E+00  0.00000000E+00  0.00000000E+00
  0.00000000E+00  0.00000000E+00  0.00000000E+00  0.00000000E+00  0.00000000E+00
  0.00000000E+00  0.00000000E+00  0.00000000E+00  0.00000000E+00  0.00000000E+00
  0.00000000E+00  0.00000000E+00  0.00000000E+00  0.00000000E+00  0.00000000E+00
  0.00000000E+00  0.00000000E+00  0.00000000E+00  0.00000000E+00  0.00000000E+00
  0.00000000E+00  0.00000000E+00  0.00000000E+00  0.00000000E+00  0.00000000E+00
  0.00000000E+00  0.00000000E+00  0.00000000E+00  0.00000000E+00  0.00000000E+00
  0.00000000E+00  0.00000000E+00  0.00000000E+00  0.00000000E+00  0.00000000E+00
  0.00000000E+00  0.00000000E+00  0.00000000E+00  0.00000000E+00  0.00000000E+00
  0.00000000E+00  0.00000000E+00  0.00000000E+00  0.00000000E+00  0.00000000E+00
  0.00000000E+00  0.00000000E+00  0.00000000E+00  0.00000000E+00  0.00000000E+00
  0.00000000E+00  0.00000000E+00  0.00000000E+00  0.00000000E+00  0.00000000E+00
  0.00000000E+00  0.00000000E+00  0.00000000E+00  0.00000000E+00  0.00000000E+00
  0.00000000E+00  0.00000000E+00  0.00000000E+00  0.00000000E+00  0.00000000E+00
  0.00000000E+00  0.00000000E+00  0.00000000E+00  0.00000000E+00  0.00000000E+00
  0.00000000E+00  0.00000000E+00  0.00000000E+00  0.00000000E+00  0.00000000E+00
  0.00000000E+00  0.00000000E+00  0.00000000E+00  0.00000000E+00  0.00000000E+00
  0.00000000E+00  0.00000000E+00  0.00000000E+00  0.00000000E+00  0.00000000E+00
  0.00000000E+00  0.00000000E+00  0.00000000E+00  0.00000000E+00  0.00000000E+00
  0.00000000E+00  0.00000000E+00  0.00000000E+00  0.00000000E+00  0.00000000E+00
  0.00000000E+00  0.00000000E+00  0.00000000E+00  0.00000000E+00  0.00000000E+00
  0.00000000E+00  0.00000000E+00  0.00000000E+00  0.00000000E+00  0.00000000E+00
  0.00000000E+00  0.00000000E+00  0.00000000E+00  0.00000000E+00  0.00000000E+00
  0.00000000E+00  0.00000000E+00  0.00000000E+00  0.00000000E+00  0.00000000E+00
  0.00000000E+00  0.00000000E+00  0.00000000E+00  0.00000000E+00  0.00000000E+00
  0.00000000E+00  0.00000000E+00  0.00000000E+00  0.00000000E+00  0.00000000E+00
  0.00000000E+00  0.00000000E+00  0.00000000E+00  0.00000000E+00  0.00000000E+00
  0.00000000E+00  0.00000000E+00  0.00000000E+00  0.00000000E+00  0.00000000E+00
  0.00000000E+00  0.00000000E+00  0.00000000E+00  0.00000000E+00  0.00000000E+00
  0.00000000E+00  0.00000000E+00  0.00000000E+00  0.00000000E+00  0.00000000E+00
  0.00000000E+00  0.00000000E+00  0.00000000E+00  0.00000000E+00  0.00000000E+00
  0.00000000E+00  0.00000000E+00  0.00000000E+00  0.00000000E+00  0.00000000E+00
  0.00000000E+00  0.00000000E+00  0.00000000E+00  0.00000000E+00  0.00000000E+00
  0.00000000E+00  0.00000000E+00  0.00000000E+00  0.00000000E+00  0.00000000E+00
  0.00000000E+00  0.00000000E+00  0.00000000E+00  0.00000000E+00  0.00000000E+00
  0.00000000E+00  0.00000000E+00  0.00000000E+00  0.00000000E+00  0.00000000E+00
  0.00000000E+00  0.00000000E+00  0.00000000E+00  0.00000000E+00  0.00000000E+00
  0.00000000E+00  0.00000000E+00  0.00000000E+00  0.00000000E+00  0.00000000E+00
  0.00000000E+00  0.00000000E+00  0.00000000E+00  0.00000000E+00  0.00000000E+00
  0.00000000E+00  0.00000000E+00  0.00000000E+00  0.00000000E+00  0.00000000E+00
  0.00000000E+00  0.00000000E+00  0.00000000E+00  0.00000000E+00  0.00000000E+00
  0.00000000E+00  0.00000000E+00  0.00000000E+00  0.00000000E+00  0.00000000E+00
  0.00000000E+00  0.00000000E+00  0.00000000E+00  0.00000000E+00  0.00000000E+00
  0.00000000E+00  0.00000000E+00  0.00000000E+00  0.00000000E+00  0.00000000E+00
  0.00000000E+00  0.00000000E+00  0.00000000E+00  0.00000000E+00  0.00000000E+00
  0.00000000E+00  0.00000000E+00  0.00000000E+00  0.00000000E+00  0.00000000E+00
  0.00000000E+00  0.00000000E+00  0.00000000E+00  0.00000000E+00  0.00000000E+00
  0.00000000E+00  0.00000000E+00  0.00000000E+00  0.00000000E+00  0.00000000E+00
  0.00000000E+00  0.00000000E+00  0.00000000E+00  0.00000000E+00  0.00000000E+00
  0.00000000E+00  0.00000000E+00  0.00000000E+00  0.00000000E+00  0.00000000E+00
  0.00000000E+00  0.00000000E+00  0.00000000E+00  0.00000000E+00  0.00000000E+00
  0.00000000E+00  0.00000000E+00  0.00000000E+00  0.00000000E+00  0.00000000E+00
  0.00000000E+00  0.00000000E+00  0.00000000E+00  0.00000000E+00  0.00000000E+00
  0.00000000E+00  0.00000000E+00  0.00000000E+00  0.00000000E+00  0.00000000E+00
  0.00000000E+00  0.00000000E+00  0.00000000E+00  0.00000000E+00  0.00000000E+00
  0.00000000E+00  0.00000000E+00  0.00000000E+00  0.00000000E+00  0.00000000E+00
  0.00000000E+00  0.00000000E+00  0.00000000E+00  0.00000000E+00  0.00000000E+00
  0.00000000E+00  0.00000000E+00  0.00000000E+00  0.00000000E+00  0.00000000E+00
  0.00000000E+00  0.00000000E+00  0.00000000E+00  0.00000000E+00  0.00000000E+00
  0.00000000E+00  0.00000000E+00  0.00000000E+00  0.00000000E+00  0.00000000E+00
  0.00000000E+00  0.00000000E+00  0.00000000E+00  0.00000000E+00  0.00000000E+00
  0.00000000E+00  0.00000000E+00  0.00000000E+00  0.00000000E+00  0.00000000E+00
  0.00000000E+00  0.00000000E+00  0.00000000E+00  0.00000000E+00  0.00000000E+00
  0.00000000E+00  0.00000000E+00  0.00000000E+00  0.00000000E+00  0.00000000E+00
  0.00000000E+00  0.00000000E+00  0.00000000E+00  0.00000000E+00  0.00000000E+00
  0.00000000E+00  0.00000000E+00  0.00000000E+00  0.00000000E+00  0.00000000E+00
  0.00000000E+00  0.00000000E+00  0.00000000E+00  0.00000000E+00  0.00000000E+00
  0.00000000E+00  0.00000000E+00  0.00000000E+00  0.00000000E+00  0.00000000E+00
  0.00000000E+00  0.00000000E+00  0.00000000E+00  0.00000000E+00  0.00000000E+00
  0.00000000E+00  0.00000000E+00  0.00000000E+00  0.00000000E+00  0.00000000E+00
  0.00000000E+00  0.00000000E+00  0.00000000E+00  0.00000000E+00  0.00000000E+00
  0.00000000E+00  0.00000000E+00  0.00000000E+00  0.00000000E+00  0.00000000E+00
  0.00000000E+00  0.00000000E+00  0.00000000E+00  0.00000000E+00  0.00000000E+00
  0.00000000E+00  0.00000000E+00  0.00000000E+00  0.00000000E+00  0.00000000E+00
  0.00000000E+00  0.00000000E+00  0.00000000E+00  0.00000000E+00  0.00000000E+00
  0.00000000E+00  0.00000000E+00  0.00000000E+00  0.00000000E+00  0.00000000E+00
  0.00000000E+00  0.00000000E+00  0.00000000E+00  0.00000000E+00  0.00000000E+00
  0.00000000E+00  0.00000000E+00  0.00000000E+00  0.00000000E+00  0.00000000E+00
  0.00000000E+00  0.00000000E+00  0.00000000E+00  0.00000000E+00  0.00000000E+00
  0.00000000E+00  0.00000000E+00  0.00000000E+00  0.00000000E+00  0.00000000E+00
  0.00000000E+00  0.00000000E+00  0.00000000E+00  0.00000000E+00  0.00000000E+00
  0.00000000E+00  0.00000000E+00  0.00000000E+00  0.00000000E+00  0.00000000E+00
  0.00000000E+00  0.00000000E+00  0.00000000E+00  0.00000000E+00  0.00000000E+00
  0.00000000E+00  0.00000000E+00  0.00000000E+00  0.00000000E+00  0.00000000E+00
  0.00000000E+00  0.00000000E+00  0.00000000E+00  0.00000000E+00  0.00000000E+00
  0.00000000E+00  0.00000000E+00  0.00000000E+00  0.00000000E+00  0.00000000E+00
  0.00000000E+00  0.00000000E+00  0.00000000E+00  0.00000000E+00  0.00000000E+00
  0.00000000E+00  0.00000000E+00  0.00000000E+00  0.00000000E+00  0.00000000E+00
  0.00000000E+00  0.00000000E+00  0.00000000E+00  0.00000000E+00  0.00000000E+00
  0.00000000E+00  0.00000000E+00  0.00000000E+00  0.00000000E+00  0.00000000E+00
  0.00000000E+00  0.00000000E+00  0.00000000E+00  0.00000000E+00  0.00000000E+00
  0.00000000E+00  0.00000000E+00  0.00000000E+00  0.00000000E+00  0.00000000E+00
  0.00000000E+00  0.00000000E+00  0.00000000E+00  0.00000000E+00  0.00000000E+00
  0.00000000E+00  0.00000000E+00  0.00000000E+00  0.00000000E+00  0.00000000E+00
  0.00000000E+00  0.00000000E+00  0.00000000E+00  0.00000000E+00  0.00000000E+00
  0.00000000E+00  0.00000000E+00  0.00000000E+00  0.00000000E+00  0.00000000E+00
  0.00000000E+00  0.00000000E+00  0.00000000E+00  0.00000000E+00  0.00000000E+00
  0.00000000E+00  0.00000000E+00  0.00000000E+00  0.00000000E+00  0.00000000E+00
  0.00000000E+00  0.00000000E+00  0.00000000E+00  0.00000000E+00  0.00000000E+00
  0.00000000E+00  0.00000000E+00  0.00000000E+00  0.00000000E+00  0.00000000E+00
  0.00000000E+00  0.00000000E+00  0.00000000E+00  0.00000000E+00  0.00000000E+00
  0.00000000E+00  0.00000000E+00  0.00000000E+00  0.00000000E+00  0.00000000E+00
  0.00000000E+00  0.00000000E+00  0.00000000E+00  0.00000000E+00  0.00000000E+00
  0.00000000E+00  0.00000000E+00  0.00000000E+00  0.00000000E+00  0.00000000E+00
  0.00000000E+00  0.00000000E+00  0.00000000E+00  0.00000000E+00  0.00000000E+00
  0.00000000E+00  0.00000000E+00  0.00000000E+00  0.00000000E+00  0.00000000E+00
  0.00000000E+00  0.00000000E+00  0.00000000E+00  0.00000000E+00  0.00000000E+00
  0.00000000E+00  0.00000000E+00  0.00000000E+00  0.00000000E+00  0.00000000E+00
  0.00000000E+00  0.00000000E+00  0.00000000E+00  0.00000000E+00  0.00000000E+00
  0.00000000E+00  0.00000000E+00  0.00000000E+00  0.00000000E+00  0.00000000E+00
  0.00000000E+00  0.00000000E+00  0.00000000E+00  0.00000000E+00  0.00000000E+00
  0.00000000E+00  0.00000000E+00  0.00000000E+00  0.00000000E+00  0.00000000E+00
  0.00000000E+00  0.00000000E+00  0.00000000E+00  0.00000000E+00  0.00000000E+00
  0.00000000E+00  0.00000000E+00  0.00000000E+00  0.00000000E+00  0.00000000E+00
  0.00000000E+00  0.00000000E+00  0.00000000E+00  0.00000000E+00  0.00000000E+00
  0.00000000E+00  0.00000000E+00  0.00000000E+00  0.00000000E+00  0.00000000E+00
  0.00000000E+00  0.00000000E+00  0.00000000E+00  0.00000000E+00  0.00000000E+00
  0.00000000E+00  0.00000000E+00  0.00000000E+00  0.00000000E+00  0.00000000E+00
  0.00000000E+00  0.00000000E+00  0.00000000E+00  0.00000000E+00  0.00000000E+00
  0.00000000E+00  0.00000000E+00  0.00000000E+00  0.00000000E+00  0.00000000E+00
  0.00000000E+00  0.00000000E+00  0.00000000E+00  0.00000000E+00  0.00000000E+00
  0.00000000E+00  0.00000000E+00  0.00000000E+00  0.00000000E+00  0.00000000E+00
  0.00000000E+00  0.00000000E+00  0.00000000E+00  0.00000000E+00  0.00000000E+00
  0.00000000E+00  0.00000000E+00  0.00000000E+00  0.00000000E+00  0.00000000E+00
  0.00000000E+00  0.00000000E+00  0.00000000E+00  0.00000000E+00  0.00000000E+00
  0.00000000E+00  0.00000000E+00  0.00000000E+00  0.00000000E+00  0.00000000E+00
  0.00000000E+00  0.00000000E+00  0.00000000E+00  0.00000000E+00  0.00000000E+00
  0.00000000E+00  0.00000000E+00  0.00000000E+00  0.00000000E+00  0.00000000E+00
  0.00000000E+00  0.00000000E+00  0.00000000E+00  0.00000000E+00  0.00000000E+00
  0.00000000E+00  0.00000000E+00  0.00000000E+00  0.00000000E+00  0.00000000E+00
  0.00000000E+00  0.00000000E+00  0.00000000E+00  0.00000000E+00  0.00000000E+00
  0.00000000E+00  0.00000000E+00  0.00000000E+00  0.00000000E+00  0.00000000E+00
  0.00000000E+00  0.00000000E+00  0.00000000E+00  0.00000000E+00  0.00000000E+00
  0.00000000E+00  0.00000000E+00  0.00000000E+00  0.00000000E+00  0.00000000E+00
  0.00000000E+00  0.00000000E+00  0.00000000E+00  0.00000000E+00  0.00000000E+00
  0.00000000E+00  0.00000000E+00  0.00000000E+00  0.00000000E+00  0.00000000E+00
  0.00000000E+00  0.00000000E+00  0.00000000E+00  0.00000000E+00  0.00000000E+00
  0.00000000E+00  0.00000000E+00  0.00000000E+00  0.00000000E+00  0.00000000E+00
  0.00000000E+00  0.00000000E+00  0.00000000E+00  0.00000000E+00  0.00000000E+00
  0.00000000E+00  0.00000000E+00  0.00000000E+00  0.00000000E+00  0.00000000E+00
  0.00000000E+00  0.00000000E+00  0.00000000E+00  0.00000000E+00  0.00000000E+00
  0.00000000E+00  0.00000000E+00  0.00000000E+00  0.00000000E+00  0.00000000E+00
  0.00000000E+00  0.00000000E+00  0.00000000E+00  0.00000000E+00  0.00000000E+00
  0.00000000E+00  0.00000000E+00  0.00000000E+00  0.00000000E+00  0.00000000E+00
  0.00000000E+00  0.00000000E+00  0.00000000E+00  0.00000000E+00  0.00000000E+00
  0.00000000E+00  0.00000000E+00  0.00000000E+00  0.00000000E+00  0.00000000E+00
  0.00000000E+00  0.00000000E+00  0.00000000E+00  0.00000000E+00  0.00000000E+00
  0.00000000E+00  0.00000000E+00  0.00000000E+00  0.00000000E+00  0.00000000E+00
  0.00000000E+00  0.00000000E+00  0.00000000E+00  0.00000000E+00  0.00000000E+00
  0.00000000E+00  0.00000000E+00  0.00000000E+00  0.00000000E+00  0.00000000E+00
  0.00000000E+00  0.00000000E+00  0.00000000E+00  0.00000000E+00  0.00000000E+00
  0.00000000E+00  0.00000000E+00  0.00000000E+00  0.00000000E+00  0.00000000E+00
  0.00000000E+00  0.00000000E+00  0.00000000E+00  0.00000000E+00  0.00000000E+00
  0.00000000E+00  0.00000000E+00  0.00000000E+00  0.00000000E+00  0.00000000E+00
  0.00000000E+00  0.00000000E+00  0.00000000E+00  0.00000000E+00  0.00000000E+00
  0.00000000E+00  0.00000000E+00  0.00000000E+00  0.00000000E+00  0.00000000E+00
  0.00000000E+00  0.00000000E+00  0.00000000E+00  0.00000000E+00  0.00000000E+00
  0.00000000E+00  0.00000000E+00  0.00000000E+00  0.00000000E+00  0.00000000E+00
  0.00000000E+00  0.00000000E+00  0.00000000E+00  0.00000000E+00  0.00000000E+00
  0.00000000E+00  0.00000000E+00  0.00000000E+00  0.00000000E+00  0.00000000E+00
  0.00000000E+00  0.00000000E+00  0.00000000E+00  0.00000000E+00  0.00000000E+00
  0.00000000E+00  0.00000000E+00  0.00000000E+00  0.00000000E+00  0.00000000E+00
  0.00000000E+00  0.00000000E+00  0.00000000E+00  0.00000000E+00  0.00000000E+00
  0.00000000E+00  0.00000000E+00  0.00000000E+00  0.00000000E+00  0.00000000E+00
  0.00000000E+00  0.00000000E+00  0.00000000E+00  0.00000000E+00  0.00000000E+00
  0.00000000E+00  0.00000000E+00  0.00000000E+00  0.00000000E+00  0.00000000E+00
  0.00000000E+00  0.00000000E+00  0.00000000E+00  0.00000000E+00  0.00000000E+00
  0.00000000E+00  0.00000000E+00  0.00000000E+00  0.00000000E+00  0.00000000E+00
  0.00000000E+00  0.00000000E+00  0.00000000E+00  0.00000000E+00  0.00000000E+00
  0.00000000E+00  0.00000000E+00  0.00000000E+00  0.00000000E+00  0.00000000E+00
  0.00000000E+00  0.00000000E+00  0.00000000E+00  0.00000000E+00  0.00000000E+00
  0.00000000E+00  0.00000000E+00  0.00000000E+00  0.00000000E+00  0.00000000E+00
  0.00000000E+00  0.00000000E+00  0.00000000E+00  0.00000000E+00  0.00000000E+00
  0.00000000E+00  0.00000000E+00  0.00000000E+00  0.00000000E+00  0.00000000E+00
  0.00000000E+00  0.00000000E+00  0.00000000E+00  0.00000000E+00  0.00000000E+00
  0.00000000E+00  0.00000000E+00  0.00000000E+00  0.00000000E+00  0.00000000E+00
  0.00000000E+00  0.00000000E+00  0.00000000E+00  0.00000000E+00  0.00000000E+00
  0.00000000E+00  0.00000000E+00  0.00000000E+00  0.00000000E+00  0.00000000E+00
  0.00000000E+00  0.00000000E+00  0.00000000E+00  0.00000000E+00  0.00000000E+00
  0.00000000E+00  0.00000000E+00  0.00000000E+00  0.00000000E+00  0.00000000E+00
  0.00000000E+00  0.00000000E+00  0.00000000E+00  0.00000000E+00  0.00000000E+00
  0.00000000E+00  0.00000000E+00  0.00000000E+00  0.00000000E+00  0.00000000E+00
  0.00000000E+00  0.00000000E+00  0.00000000E+00  0.00000000E+00  0.00000000E+00
  0.00000000E+00  0.00000000E+00  0.00000000E+00  0.00000000E+00  0.00000000E+00
  0.00000000E+00  0.00000000E+00  0.00000000E+00  0.00000000E+00  0.00000000E+00
  0.00000000E+00  0.00000000E+00  0.00000000E+00  0.00000000E+00  0.00000000E+00
  0.00000000E+00  0.00000000E+00  0.00000000E+00  0.00000000E+00  0.00000000E+00
  0.00000000E+00  0.00000000E+00  0.00000000E+00  0.00000000E+00  0.00000000E+00
  0.00000000E+00  0.00000000E+00  0.00000000E+00  0.00000000E+00  0.00000000E+00
  0.00000000E+00  0.00000000E+00  0.00000000E+00  0.00000000E+00  0.00000000E+00
  0.00000000E+00  0.00000000E+00  0.00000000E+00  0.00000000E+00  0.00000000E+00
  0.00000000E+00  0.00000000E+00  0.00000000E+00  0.00000000E+00  0.00000000E+00
  0.00000000E+00  0.00000000E+00  0.00000000E+00  0.00000000E+00  0.00000000E+00
  0.00000000E+00  0.00000000E+00  0.00000000E+00  0.00000000E+00  0.00000000E+00
  0.00000000E+00  0.00000000E+00  0.00000000E+00  0.00000000E+00  0.00000000E+00
  0.00000000E+00  0.00000000E+00  0.00000000E+00  0.00000000E+00  0.00000000E+00
  0.00000000E+00  0.00000000E+00  0.00000000E+00  0.00000000E+00  0.00000000E+00
  0.00000000E+00  0.00000000E+00  0.00000000E+00  0.00000000E+00  0.00000000E+00
  0.00000000E+00  0.00000000E+00  0.00000000E+00  0.00000000E+00  0.00000000E+00
  0.00000000E+00  0.00000000E+00  0.00000000E+00  0.00000000E+00  0.00000000E+00
  0.00000000E+00  0.00000000E+00  0.00000000E+00  0.00000000E+00  0.00000000E+00
  0.00000000E+00  0.00000000E+00  0.00000000E+00  0.00000000E+00  0.00000000E+00
  0.00000000E+00  0.00000000E+00  0.00000000E+00  0.00000000E+00  0.00000000E+00
  0.00000000E+00  0.00000000E+00  0.00000000E+00  0.00000000E+00  0.00000000E+00
  0.00000000E+00  0.00000000E+00  0.00000000E+00  0.00000000E+00  0.00000000E+00
  0.00000000E+00  0.00000000E+00  0.00000000E+00  0.00000000E+00  0.00000000E+00
  0.00000000E+00  0.00000000E+00  0.00000000E+00  0.00000000E+00  0.00000000E+00
  0.00000000E+00  0.00000000E+00  0.00000000E+00  0.00000000E+00  0.00000000E+00
  0.00000000E+00  0.00000000E+00  0.00000000E+00  0.00000000E+00  0.00000000E+00
  0.00000000E+00  0.00000000E+00  0.00000000E+00  0.00000000E+00  0.00000000E+00
  0.00000000E+00  0.00000000E+00  0.00000000E+00  0.00000000E+00  0.00000000E+00
  0.00000000E+00  0.00000000E+00  0.00000000E+00  0.00000000E+00  0.00000000E+00
  0.00000000E+00  0.00000000E+00  0.00000000E+00  0.00000000E+00  0.00000000E+00
  0.00000000E+00  0.00000000E+00  0.00000000E+00  0.00000000E+00  0.00000000E+00
  0.00000000E+00  0.00000000E+00  0.00000000E+00  0.00000000E+00  0.00000000E+00
  0.00000000E+00  0.00000000E+00  0.00000000E+00  0.00000000E+00  0.00000000E+00
  0.00000000E+00  0.00000000E+00  0.00000000E+00  0.00000000E+00  0.00000000E+00
  0.00000000E+00  0.00000000E+00  0.00000000E+00  0.00000000E+00  0.00000000E+00
  0.00000000E+00  0.00000000E+00  0.00000000E+00  0.00000000E+00  0.00000000E+00
  0.00000000E+00  0.00000000E+00  0.00000000E+00  0.00000000E+00  0.00000000E+00
  0.00000000E+00  0.00000000E+00  0.00000000E+00  0.00000000E+00  0.00000000E+00
  0.00000000E+00  0.00000000E+00  0.00000000E+00  0.00000000E+00  0.00000000E+00
  0.00000000E+00  0.00000000E+00  0.00000000E+00  0.00000000E+00  0.00000000E+00
  0.00000000E+00  0.00000000E+00  0.00000000E+00  0.00000000E+00  0.00000000E+00
  0.00000000E+00  0.00000000E+00  0.00000000E+00  0.00000000E+00  0.00000000E+00
  0.00000000E+00  0.00000000E+00  0.00000000E+00  0.00000000E+00  0.00000000E+00
  0.00000000E+00  0.00000000E+00  0.00000000E+00  0.00000000E+00  0.00000000E+00
  0.00000000E+00  0.00000000E+00  0.00000000E+00  0.00000000E+00  0.00000000E+00
  0.00000000E+00  0.00000000E+00  0.00000000E+00  0.00000000E+00  0.00000000E+00
  0.00000000E+00  0.00000000E+00  0.00000000E+00  0.00000000E+00  0.00000000E+00
  0.00000000E+00  0.00000000E+00  0.00000000E+00  0.00000000E+00  0.00000000E+00
  0.00000000E+00  0.00000000E+00  0.00000000E+00  0.00000000E+00  0.00000000E+00
  0.00000000E+00  0.00000000E+00  0.00000000E+00  0.00000000E+00  0.00000000E+00
  0.00000000E+00  0.00000000E+00  0.00000000E+00  0.00000000E+00  0.00000000E+00
  0.00000000E+00  0.00000000E+00  0.00000000E+00  0.00000000E+00  0.00000000E+00
  0.00000000E+00  0.00000000E+00  0.00000000E+00  0.00000000E+00  0.00000000E+00
  0.00000000E+00  0.00000000E+00  0.00000000E+00  0.00000000E+00  0.00000000E+00
  0.00000000E+00  0.00000000E+00  0.00000000E+00  0.00000000E+00  0.00000000E+00
  0.00000000E+00  0.00000000E+00  0.00000000E+00  0.00000000E+00  0.00000000E+00
  0.00000000E+00  0.00000000E+00  0.00000000E+00  0.00000000E+00  0.00000000E+00
  0.00000000E+00  0.00000000E+00  0.00000000E+00  0.00000000E+00  0.00000000E+00
  0.00000000E+00  0.00000000E+00  0.00000000E+00  0.00000000E+00  0.00000000E+00
  0.00000000E+00  0.00000000E+00  0.00000000E+00  0.00000000E+00  0.00000000E+00
  0.00000000E+00  0.00000000E+00  0.00000000E+00  0.00000000E+00  0.00000000E+00
  0.00000000E+00  0.00000000E+00  0.00000000E+00  0.00000000E+00  0.00000000E+00
  0.00000000E+00  0.00000000E+00  0.00000000E+00  0.00000000E+00  0.00000000E+00
  0.00000000E+00  0.00000000E+00  0.00000000E+00  0.00000000E+00  0.00000000E+00
  0.00000000E+00  0.00000000E+00  0.00000000E+00  0.00000000E+00  0.00000000E+00
  0.00000000E+00  0.00000000E+00  0.00000000E+00  0.00000000E+00  0.00000000E+00
  0.00000000E+00  0.00000000E+00  0.00000000E+00  0.00000000E+00  0.00000000E+00
  0.00000000E+00  0.00000000E+00  0.00000000E+00  0.00000000E+00  0.00000000E+00
  0.00000000E+00  0.00000000E+00  0.00000000E+00  0.00000000E+00  0.00000000E+00
  0.00000000E+00  0.00000000E+00  0.00000000E+00  0.00000000E+00  0.00000000E+00
  0.00000000E+00  0.00000000E+00  0.00000000E+00  0.00000000E+00  0.00000000E+00
  0.00000000E+00  0.00000000E+00  0.00000000E+00  0.00000000E+00  0.00000000E+00
  0.00000000E+00  0.00000000E+00  0.00000000E+00  0.00000000E+00  0.00000000E+00
  0.00000000E+00  0.00000000E+00  0.00000000E+00  0.00000000E+00  0.00000000E+00
  0.00000000E+00  0.00000000E+00  0.00000000E+00  0.00000000E+00  0.00000000E+00
  0.00000000E+00  0.00000000E+00  0.00000000E+00  0.00000000E+00  0.00000000E+00
  0.00000000E+00  0.00000000E+00  0.00000000E+00  0.00000000E+00  0.00000000E+00
  0.00000000E+00  0.00000000E+00  0.00000000E+00  0.00000000E+00  0.00000000E+00
  0.00000000E+00  0.00000000E+00  0.00000000E+00  0.00000000E+00  0.00000000E+00
  0.00000000E+00  0.00000000E+00  0.00000000E+00  0.00000000E+00  0.00000000E+00
  0.00000000E+00  0.00000000E+00  0.00000000E+00  0.00000000E+00  0.00000000E+00
  0.00000000E+00  0.00000000E+00  0.00000000E+00  0.00000000E+00  0.00000000E+00
  0.00000000E+00  0.00000000E+00  0.00000000E+00  0.00000000E+00  0.00000000E+00
  0.00000000E+00  0.00000000E+00  0.00000000E+00  0.00000000E+00  0.00000000E+00
  0.00000000E+00  0.00000000E+00  0.00000000E+00  0.00000000E+00  0.00000000E+00
  0.00000000E+00  0.00000000E+00  0.00000000E+00  0.00000000E+00  0.00000000E+00
  0.00000000E+00  0.00000000E+00  0.00000000E+00  0.00000000E+00  0.00000000E+00
  0.00000000E+00  0.00000000E+00  0.00000000E+00  0.00000000E+00  0.00000000E+00
  0.00000000E+00  0.00000000E+00  0.00000000E+00  0.00000000E+00  0.00000000E+00
  0.00000000E+00  0.00000000E+00  0.00000000E+00  0.00000000E+00  0.00000000E+00
  0.00000000E+00  0.00000000E+00  0.00000000E+00  0.00000000E+00  0.00000000E+00
  0.00000000E+00  0.00000000E+00  0.00000000E+00  0.00000000E+00  0.00000000E+00
  0.00000000E+00  0.00000000E+00  0.00000000E+00  0.00000000E+00  0.00000000E+00
  0.00000000E+00  0.00000000E+00  0.00000000E+00  0.00000000E+00  0.00000000E+00
  0.00000000E+00  0.00000000E+00  0.00000000E+00  0.00000000E+00  0.00000000E+00
  0.00000000E+00  0.00000000E+00  0.00000000E+00  0.00000000E+00  0.00000000E+00
  0.00000000E+00  0.00000000E+00  0.00000000E+00  0.00000000E+00  0.00000000E+00
  0.00000000E+00  0.00000000E+00  0.00000000E+00  0.00000000E+00  0.00000000E+00
  0.00000000E+00  0.00000000E+00  0.00000000E+00  0.00000000E+00  0.00000000E+00
  0.00000000E+00  0.00000000E+00  0.00000000E+00  0.00000000E+00  0.00000000E+00
  0.00000000E+00  0.00000000E+00  0.00000000E+00  0.00000000E+00  0.00000000E+00
  0.00000000E+00  0.00000000E+00  0.00000000E+00  0.00000000E+00  0.00000000E+00
  0.00000000E+00  0.00000000E+00  0.00000000E+00  0.00000000E+00  0.00000000E+00
  0.00000000E+00  0.00000000E+00  0.00000000E+00  0.00000000E+00  0.00000000E+00
  0.00000000E+00  0.00000000E+00  0.00000000E+00  0.00000000E+00  0.00000000E+00
  0.00000000E+00  0.00000000E+00  0.00000000E+00  0.00000000E+00  0.00000000E+00
  0.00000000E+00  0.00000000E+00  0.00000000E+00  0.00000000E+00  0.00000000E+00
  0.00000000E+00  0.00000000E+00  0.00000000E+00  0.00000000E+00  0.00000000E+00
  0.00000000E+00  0.00000000E+00  0.00000000E+00  0.00000000E+00  0.00000000E+00
  0.00000000E+00  0.00000000E+00  0.00000000E+00  0.00000000E+00  0.00000000E+00
  0.00000000E+00  0.00000000E+00  0.00000000E+00  0.00000000E+00  0.00000000E+00
  0.00000000E+00  0.00000000E+00  0.00000000E+00  0.00000000E+00  0.00000000E+00
  0.00000000E+00  0.00000000E+00  0.00000000E+00  0.00000000E+00  0.00000000E+00
  0.00000000E+00  0.00000000E+00  0.00000000E+00  0.00000000E+00  0.00000000E+00
  0.00000000E+00  0.00000000E+00  0.00000000E+00  0.00000000E+00  0.00000000E+00
  0.00000000E+00  0.00000000E+00  0.00000000E+00  0.00000000E+00  0.00000000E+00
  0.00000000E+00  0.00000000E+00  0.00000000E+00  0.00000000E+00  0.00000000E+00
  0.00000000E+00  0.00000000E+00  0.00000000E+00  0.00000000E+00  0.00000000E+00
  0.00000000E+00  0.00000000E+00  0.00000000E+00  0.00000000E+00  0.00000000E+00
  0.00000000E+00  0.00000000E+00  0.00000000E+00  0.00000000E+00  0.00000000E+00
  0.00000000E+00  0.00000000E+00  0.00000000E+00  0.00000000E+00  0.00000000E+00
  0.00000000E+00  0.00000000E+00  0.00000000E+00  0.00000000E+00  0.00000000E+00
  0.00000000E+00  0.00000000E+00  0.00000000E+00  0.00000000E+00  0.00000000E+00
  0.00000000E+00  0.00000000E+00  0.00000000E+00  0.00000000E+00  0.00000000E+00
  0.00000000E+00  0.00000000E+00  0.00000000E+00  0.00000000E+00  0.00000000E+00
  0.00000000E+00  0.00000000E+00  0.00000000E+00  0.00000000E+00  0.00000000E+00
  0.00000000E+00  0.00000000E+00  0.00000000E+00  0.00000000E+00  0.00000000E+00
  0.00000000E+00  0.00000000E+00  0.00000000E+00  0.00000000E+00  0.00000000E+00
  0.00000000E+00  0.00000000E+00  0.00000000E+00  0.00000000E+00  0.00000000E+00
  0.00000000E+00  0.00000000E+00  0.00000000E+00  0.00000000E+00  0.00000000E+00
  0.00000000E+00  0.00000000E+00  0.00000000E+00  0.00000000E+00  0.00000000E+00
  0.00000000E+00  0.00000000E+00  0.00000000E+00  0.00000000E+00  0.00000000E+00
  0.00000000E+00  0.00000000E+00  0.00000000E+00  0.00000000E+00  0.00000000E+00
  0.00000000E+00  0.00000000E+00  0.00000000E+00  0.00000000E+00  0.00000000E+00
  0.00000000E+00  0.00000000E+00  0.00000000E+00  0.00000000E+00  0.00000000E+00
  0.00000000E+00  0.00000000E+00  0.00000000E+00  0.00000000E+00  0.00000000E+00
  0.00000000E+00  0.00000000E+00  0.00000000E+00  0.00000000E+00  0.00000000E+00
  0.00000000E+00  0.00000000E+00  0.00000000E+00  0.00000000E+00  0.00000000E+00
  0.00000000E+00  0.00000000E+00  0.00000000E+00  0.00000000E+00  0.00000000E+00
  0.00000000E+00  0.00000000E+00  0.00000000E+00  0.00000000E+00  0.00000000E+00
  0.00000000E+00  0.00000000E+00  0.00000000E+00  0.00000000E+00  0.00000000E+00
  0.00000000E+00  0.00000000E+00  0.00000000E+00  0.00000000E+00  0.00000000E+00
  0.00000000E+00  0.00000000E+00  0.00000000E+00  0.00000000E+00  0.00000000E+00
  0.00000000E+00  0.00000000E+00  0.00000000E+00  0.00000000E+00  0.00000000E+00
  0.00000000E+00  0.00000000E+00  0.00000000E+00  0.00000000E+00  0.00000000E+00
  0.00000000E+00  0.00000000E+00  0.00000000E+00  0.00000000E+00  0.00000000E+00
Gaussian Version                           C   N=           2
ES64L-G16RevB.01        
